&CONTROL
    calculation   = 'relax'
    forc_conv_thr =  1.00000e-02
    prefix        = 'li_v16o40'
    pseudo_dir    = '/home/mpicuntureo/pseudos'
    nstep         = 500
/
&SYSTEM
    ibrav = 0
    nat = 57
    ntyp = 3
    input_dft = "vdW-DF"
    ecutwfc = 40.0 
    ecutrho = 400.0 
    occupations = 'smearing' 
    degauss = 0.1
    smearing = 'gaussian' 
 /
 &ELECTRONS
    electron_maxstep = 500
    conv_thr = 1.0e-6 
    mixing_mode = 'plain' 
    mixing_beta = 0.4 
 /

&IONS
    ion_dynamics = "bfgs"
    bfgs_ndim = 2
/


ATOMIC_SPECIES
    V   50.94150 V.pbesol-spnl-kjpaw_psl.1.0.0.UPF   
    O   15.99940 O.pbesol-n-kjpaw_psl.1.0.0.UPF 
    Li   6.94100 Li.pbesol-sl-kjpaw_psl.1.0.0.UPF 
 
K_POINTS automatic
2 2 2 0 0 0

CELL_PARAMETERS (angstrom)
     7.1613471857823061   -0.0000014917348765    0.0000000000000000
    -0.0000019321518401    8.2615310586168835    0.0000000000000000
     0.0000000000000000    0.0000000000000000   11.6698165228754878

ATOMIC_POSITIONS (angstrom)
V    1.1089439830000001  1.5829509570000000  1.7352186370000000
V    2.8992807699999998  2.4864290400000000  4.0996565629999999
V    2.8992807699999998  2.4864290400000000  7.5701596190000000
V    1.1089439830000001  1.5829509570000000  9.9345980659999995
O    1.1089716439999999  2.0052019919999999  0.0000000000000000
O    1.1089521990000000 -0.0374752880000000  1.7021980080000001
O    2.8993031590000000  2.0277933520000002  2.0973855989999999
O    1.1089667489999999  2.0415958079999998  3.7375210470000000
O    2.8992922839999999  4.1068504140000002  4.1326989359999997
O    2.8993118409999998  2.0641516489999998  5.8349082650000001
O    2.8992922839999999  4.1068504140000002  7.5371175929999996
O    1.1089667489999999  2.0415958079999998  7.9322958300000002
O    2.8993031590000000  2.0277933520000002  9.5724312779999998
O    1.1089521990000000 -0.0374752880000000  9.9676192179999994
V    1.1089430170000001  5.7137164860000000  1.7352186370000000
V    2.8992798039999998  6.6171945689999996  4.0996565629999999
V    2.8992798039999998  6.6171945689999996  7.5701596190000000
V    1.1089430170000001  5.7137164860000000  9.9345980659999995
O    1.1089706779999999  6.1359675210000004  0.0000000000000000
O    1.1089512330000000  4.0932902410000001  1.7021980080000001
O    2.8993021930000000  6.1585588810000003  2.0973855989999999
O    1.1089657829999999  6.1723613369999999  3.7375210470000000
O    2.8992913180000000  8.2376159429999998  4.1326989359999997
O    2.8993108749999998  6.1949171779999999  5.8349082650000001
O    2.8992913180000000  8.2376159429999998  7.5371175929999996
O    1.1089657829999999  6.1723613369999999  7.9322958300000002
O    2.8993021930000000  6.1585588810000003  9.5724312779999998
O    1.1089512330000000  4.0932902410000001  9.9676192179999994
V    4.6896175759999998  1.5829502110000000  1.7352186370000000
V    6.4799543630000001  2.4864282940000000  4.0996565629999999
V    6.4799543630000001  2.4864282940000000  7.5701596190000000
V    4.6896175759999998  1.5829502110000000  9.9345980659999995
O    4.6896452369999997  2.0052012459999999  0.0000000000000000
O    4.6896257920000002 -0.0374760340000000  1.7021980080000001
O    6.4799767519999998  2.0277926060000002  2.0973855989999999
O    4.6896403419999997  2.0415950619999998  3.7375210470000000
O    6.4799658769999997  4.1068496679999997  4.1326989359999997
O    6.4799854339999996  2.0641509029999998  5.8349082650000001
O    6.4799658769999997  4.1068496679999997  7.5371175929999996
O    4.6896403419999997  2.0415950619999998  7.9322958300000002
O    6.4799767519999998  2.0277926060000002  9.5724312779999998
O    4.6896257920000002 -0.0374760340000000  9.9676192179999994
V    4.6896166099999999  5.7137157399999996  1.7352186370000000
V    6.4799533970000001  6.6171938230000000  4.0996565629999999
V    6.4799533970000001  6.6171938230000000  7.5701596190000000
V    4.6896166099999999  5.7137157399999996  9.9345980659999995
O    4.6896442709999997  6.1359667750000000  0.0000000000000000
O    4.6896248260000002  4.0932894949999996  1.7021980080000001
O    6.4799757859999998  6.1585581349999998  2.0973855989999999
O    4.6896393759999997  6.1723605910000003  3.7375210470000000
O    6.4799649109999997  8.2376151970000002  4.1326989359999997
O    6.4799844679999996  6.1949164320000003  5.8349082650000001
O    6.4799649109999997  8.2376151970000002  7.5371175929999996
O    4.6896393759999997  6.1723605910000003  7.9322958300000002
O    6.4799757859999998  6.1585581349999998  9.5724312779999998
O    4.6896248260000002  4.0932894949999996  9.9676192179999994
Li   4.7196562265834769  4.3196562265834784  5.8196562265834730
