&CONTROL
    calculation   = 'relax'
    forc_conv_thr =  1.00000e-02
    prefix        = 'graph'
    pseudo_dir    = '/home/mpicuntureo/pseudos'
    nstep         = 500
/
&SYSTEM
    ibrav = 0
    nat = 36
    ntyp = 1
    input_dft = "vdW-DF"
    ecutwfc = 40.0 
    ecutrho = 400.0 
    occupations = 'smearing' 
    degauss = 0.1
    smearing = 'gaussian' 
 /
 &ELECTRONS
    electron_maxstep = 500
    conv_thr = 1.0e-6 
    mixing_mode = 'plain' 
    mixing_beta = 0.4 
 /

&IONS
    ion_dynamics = "bfgs"
    bfgs_ndim = 2
/


ATOMIC_SPECIES
    C   12.01100 C.pbesol-n-kjpaw_psl.1.0.0.UPF

K_POINTS automatic
2 2 2 0 0 0

CELL_PARAMETERS (angstrom)
     7.4284572539999996    0.0000000000000000   -0.0000000000000000
    -3.7142286269999998    6.4332326910000006   -0.0000000000000000
     0.0000000000000000   -0.0000000000000000    6.8864974070000002

ATOMIC_POSITIONS (angstrom)
C   0.0000000000000000  0.0000000000000000  0.0000000000000000
C   0.0000000000000000  1.4296072660000001  0.0000000000000000
C   0.0000000000000000  0.0000000000000000  3.4432487070000000
C   1.2380762100000000  0.7148036330000000  3.4432487070000000
C  -1.2380762089999999  2.1444108970000002  0.0000000000000000
C  -1.2380762089999999  3.5740181630000003  0.0000000000000000
C  -1.2380762089999999  2.1444108970000002  3.4432487070000000
C   0.0000000010000001  2.8592145300000000  3.4432487070000000
C  -2.4761524179999999  4.2888217940000004  0.0000000000000000
C  -2.4761524179999999  5.7184290600000001  0.0000000000000000
C  -2.4761524179999999  4.2888217940000004  3.4432487070000000
C  -1.2380762079999998  5.0036254270000002  3.4432487070000000
C   2.4761524179999999  0.0000000000000000  0.0000000000000000
C   2.4761524179999999  1.4296072660000001  0.0000000000000000
C   2.4761524179999999  0.0000000000000000  3.4432487070000000
C   3.7142286279999999  0.7148036330000000  3.4432487070000000
C   1.2380762089999999  2.1444108970000002  0.0000000000000000
C   1.2380762089999999  3.5740181630000003  0.0000000000000000
C   1.2380762089999999  2.1444108970000002  3.4432487070000000
C   2.4761524189999999  2.8592145300000000  3.4432487070000000
C   0.0000000000000000  4.2888217940000004  0.0000000000000000
C   0.0000000000000000  5.7184290600000001  0.0000000000000000
C   0.0000000000000000  4.2888217940000004  3.4432487070000000
C   1.2380762100000000  5.0036254270000002  3.4432487070000000
C   4.9523048359999997  0.0000000000000000  0.0000000000000000
C   4.9523048359999997  1.4296072660000001  0.0000000000000000
C   4.9523048359999997  0.0000000000000000  3.4432487070000000
C   6.1903810459999997  0.7148036330000000  3.4432487070000000
C   3.7142286269999998  2.1444108970000002  0.0000000000000000
C   3.7142286269999998  3.5740181630000003  0.0000000000000000
C   3.7142286269999998  2.1444108970000002  3.4432487070000000
C   4.9523048369999998  2.8592145300000000  3.4432487070000000
C   2.4761524179999999  4.2888217940000004  0.0000000000000000
C   2.4761524179999999  5.7184290600000001  0.0000000000000000
C   2.4761524179999999  4.2888217940000004  3.4432487070000000
C   3.7142286279999999  5.0036254270000002  3.4432487070000000
