&CONTROL
    calculation   = 'relax'
    forc_conv_thr =  1.00000e-02
    prefix        = 'v16o40'
    pseudo_dir    = '/home/mpicuntureo/pseudos'
    nstep         = 500
/
&SYSTEM
    ibrav = 0
    nat = 56
    ntyp = 2
    input_dft = "vdW-DF"
    ecutwfc = 40.0 
    ecutrho = 400.0 
    occupations = 'smearing' 
    degauss = 0.1
    smearing = 'gaussian' 
 /
 &ELECTRONS
    electron_maxstep = 500
    conv_thr = 1.0e-6 
    mixing_mode = 'plain' 
    mixing_beta = 0.4 
 /

&IONS
    ion_dynamics = "bfgs"
    bfgs_ndim = 2
/


ATOMIC_SPECIES
    V   50.94150 V.pbesol-spnl-kjpaw_psl.1.0.0.UPF   
    O   15.99940 O.pbesol-n-kjpaw_psl.1.0.0.UPF 
 
K_POINTS automatic
2 2 2 0 0 0

CELL_PARAMETERS (angstrom)
     7.1613471857823061   -0.0000014917348765    0.0000000000000000
    -0.0000019321518401    8.2615310586168835    0.0000000000000000
     0.0000000000000000    0.0000000000000000   11.6698165228754878

ATOMIC_POSITIONS (angstrom)
V    1.1089439830000001  1.5829509570000000  1.7352186370000000
V    2.8992807699999998  2.4864290400000000  4.0996565629999999
V    2.8992807699999998  2.4864290400000000  7.5701596190000000
V    1.1089439830000001  1.5829509570000000  9.9345980659999995
O    1.1089716439999999  2.0052019919999999  0.0000000000000000
O    1.1089521990000000 -0.0374752880000000  1.7021980080000001
O    2.8993031590000000  2.0277933520000002  2.0973855989999999
O    1.1089667489999999  2.0415958079999998  3.7375210470000000
O    2.8992922839999999  4.1068504140000002  4.1326989359999997
O    2.8993118409999998  2.0641516489999998  5.8349082650000001
O    2.8992922839999999  4.1068504140000002  7.5371175929999996
O    1.1089667489999999  2.0415958079999998  7.9322958300000002
O    2.8993031590000000  2.0277933520000002  9.5724312779999998
O    1.1089521990000000 -0.0374752880000000  9.9676192179999994
V    1.1089430169240799  5.7137164863084422  1.7352186370000000
V    2.8992798039240797  6.6171945693084417  4.0996565629999999
V    2.8992798039240797  6.6171945693084417  7.5701596190000000
V    1.1089430169240799  5.7137164863084422  9.9345980659999995
O    1.1089706779240798  6.1359675213084417  0.0000000000000000
O    1.1089512329240798  4.0932902413084413  1.7021980080000001
O    2.8993021929240799  6.1585588813084424  2.0973855989999999
O    1.1089657829240798  6.1723613373084412  3.7375210470000000
O    2.8992913179240798  8.2376159433084410  4.1326989359999997
O    2.8993108749240797  6.1949171783084420  5.8349082650000001
O    2.8992913179240798  8.2376159433084410  7.5371175929999996
O    1.1089657829240798  6.1723613373084412  7.9322958300000002
O    2.8993021929240799  6.1585588813084424  9.5724312779999998
O    1.1089512329240798  4.0932902413084413  9.9676192179999994
V    4.6896175758911536  1.5829502111325617  1.7352186370000000
V    6.4799543628911529  2.4864282941325615  4.0996565629999999
V    6.4799543628911529  2.4864282941325615  7.5701596190000000
V    4.6896175758911536  1.5829502111325617  9.9345980659999995
O    4.6896452368911525  2.0052012461325615  0.0000000000000000
O    4.6896257918911530 -0.0374760338674383  1.7021980080000001
O    6.4799767518911526  2.0277926061325617  2.0973855989999999
O    4.6896403418911525  2.0415950621325614  3.7375210470000000
O    6.4799658768911534  4.1068496681325621  4.1326989359999997
O    6.4799854338911533  2.0641509031325613  5.8349082650000001
O    6.4799658768911534  4.1068496681325621  7.5371175929999996
O    4.6896403418911525  2.0415950621325614  7.9322958300000002
O    6.4799767518911526  2.0277926061325617  9.5724312779999998
O    4.6896257918911530 -0.0374760338674383  9.9676192179999994
V    4.6896166098152330  5.7137157404410033  1.7352186370000000
V    6.4799533968152332  6.6171938234410037  4.0996565629999999
V    6.4799533968152332  6.6171938234410037  7.5701596190000000
V    4.6896166098152330  5.7137157404410033  9.9345980659999995
O    4.6896442708152328  6.1359667754410037  0.0000000000000000
O    4.6896248258152333  4.0932894954410033  1.7021980080000001
O    6.4799757858152329  6.1585581354410035  2.0973855989999999
O    4.6896393758152328  6.1723605914410040  3.7375210470000000
O    6.4799649108152328  8.2376151974410039  4.1326989359999997
O    6.4799844678152327  6.1949164324410031  5.8349082650000001
O    6.4799649108152328  8.2376151974410039  7.5371175929999996
O    4.6896393758152328  6.1723605914410040  7.9322958300000002
O    6.4799757858152329  6.1585581354410035  9.5724312779999998
O    4.6896248258152333  4.0932894954410033  9.9676192179999994

