&CONTROL
    calculation   = "scf"
    prefix        = "v2o5"
    pseudo_dir    = "/home/mpicuntureo/pseudos"
    outdir        = "outdir"
    nstep         = 500
/
&SYSTEM
    nat           = 14
    ntyp          = 2
    ibrav         = 8
    A             = 3.58016837599061 
    B             = 4.68925068271127
    C             = 11.6641313430411
    input_dft     = "vdW-DF"
    ecutwfc       = 80
    ecutrho       = 800
    occupations   = "fixed"
/
&ELECTRONS
    conv_thr         = 1.0e-12
    electron_maxstep = 500
/

ATOMIC_SPECIES
    V   50.94150  v.nc.upf
    O   15.99940  o.nc.upf

K_POINTS (automatic)
 3 3 1  0 0 0

ATOMIC_POSITIONS (crystal)
V        0.000000000   0.389416794   0.647595941
V        0.500000007   0.610583219   0.852404080
V        0.500000007   0.610583219   0.147595934
V        0.000000000   0.389416794   0.352404073
O        0.500000007   0.494569514   0.681203029
O        0.000000000   0.505430500   0.818796993
O        0.000000000   0.505430500   0.181203021
O        0.500000007   0.494569514   0.318796986
O        0.000000000   0.050094026   0.357149068
O        0.500000007   0.949905988   0.142850939
O        0.500000007   0.949905988   0.857149075
O        0.500000007   0.499181347  -0.000000000
O        0.000000000   0.500818666   0.500000007
O        0.000000000   0.050094026   0.642850946
