&input
 fildyn='v2o5.dyn',
 asr='crystal'
/     
