&CONTROL
    calculation   = "scf"
    prefix        = "v2o5"
    pseudo_dir    = "/home/mpicuntureo/pseudos"
    outdir        = "outdir"
    nstep         = 500
/
&SYSTEM
    nat           = 14
    ntyp          = 2
    ibrav         = 8
    A             = 3.53633214456736 
    B             = 4.46964787410351  
    C             = 11.5667977645308 
    vdw_corr      = "DFT-D"
    ecutwfc       = 80
    ecutrho       = 800
    occupations   = "fixed"
/
&ELECTRONS
    conv_thr         = 1.0e-12
    electron_maxstep = 500
/

ATOMIC_SPECIES
    V   50.94150  v.nc.upf
    O   15.99940  o.nc.upf

K_POINTS (automatic)
 3 3 1  0 0 0

ATOMIC_POSITIONS (crystal)
V       -0.000000000   0.382880981   0.648069757
V        0.500000002   0.617119023   0.851930248
V        0.500000002   0.617119023   0.148069756
V        0.000000000   0.382880981   0.351930246
O        0.500000002   0.492273735   0.681315308
O        0.000000000   0.507726269   0.818684697
O        0.000000000   0.507726269   0.181315307
O        0.500000002   0.492273735   0.318684695
O        0.000000000   0.028931761   0.354244821
O        0.500000002   0.971068243   0.145755182
O        0.500000002   0.971068243   0.854244822
O        0.500000002   0.509034886   0.000000000
O       -0.000000000   0.490965118   0.500000002
O       -0.000000000   0.028931761   0.645755184
