&CONTROL
    calculation   = "vc-relax"
    forc_conv_thr =  1.00000e-03
    prefix        = "graph"
    pseudo_dir    = "~/pseudos"
    nstep         = 500
/
&SYSTEM
    ibrav = 0
    nat= 16                       
    ntyp = 1
    ecutwfc = 60.0 
    ecutrho = 600.0 
    occupations = 'smearing' 
    degauss = 0.002
    smearing = 'gaussian' 
 /
 &ELECTRONS
            electron_maxstep = 100
                    conv_thr = 1.0e-10 
                 mixing_mode = 'local-TF' 
                 mixing_beta = 0.3 
 /

&IONS
    ion_dynamics = "bfgs"
    bfgs_ndim = 2
/

&CELL
    cell_dynamics  = "bfgs"
/

ATOMIC_SPECIES
    C   12.01100  C.pbesol-n-kjpaw_psl.1.0.0.UPF

K_POINTS automatic
4 4 4 1 1 1

CELL_PARAMETERS (angstrom)
   4.918318051   0.000000000   0.000000000
  -2.459159026   4.259388376   0.000000000
   0.000000000   0.000000000   7.193998513

ATOMIC_POSITIONS (angstrom)
C             0.0000000000        0.0000000000        0.0000000000
C             0.0000000000        0.0000000000        3.5969992573
C             1.2295805255        0.7098985056        0.0000000000
C            -0.0000001234        1.4197972594        3.5969992573
C            -1.2295803692        2.1296936943        0.0000000000
C            -1.2295786201        2.1296947040        3.5969992573
C             0.0000001224        2.8395921802        0.0000000000
C            -1.2295787162        3.5494898542        3.5969992573
C             2.4591590262        0.0000009885        0.0000000000
C             2.4591590262       -0.0000010311        3.5969992573
C             3.6887377716        0.7098985056        0.0000000000
C             2.4591589028        1.4197961969        3.5969992573
C             1.2295803692        2.1296936943        0.0000000000
C             1.2295786201        2.1296947040        3.5969992573
C             2.4591591485        2.8395911524        0.0000000000
C             1.2295784695        3.5494898542        3.5969992573

