&CONTROL
    calculation   = 'vc-relax'
    forc_conv_thr =  1.00000e-02
    prefix        = 'graph'
    pseudo_dir    = '/home/mpicuntureo/pseudos'
    nstep         = 500
/
&SYSTEM
    ibrav = 0
    nat = 4
    ntyp = 1
    input_dft = "vdW-DF"
    ecutwfc = 40.0 
    ecutrho = 500.0 
    occupations = 'smearing' 
    degauss = 0.1
    smearing = 'gaussian' 
 /
 &ELECTRONS
    electron_maxstep = 500
    conv_thr = 1.0e-6 
    mixing_mode = 'plain' 
    mixing_beta = 0.4 
 /

&IONS
    ion_dynamics = "bfgs"
    bfgs_ndim = 2
/

&CELL
    cell_dynamics  = "bfgs"
/


ATOMIC_SPECIES
    C   12.01100 C.pbesol-n-kjpaw_psl.1.0.0.UPF
 
K_POINTS automatic
6 6 6 0 0 0

CELL_PARAMETERS (angstrom)
     2.4560013840942054    0.0000000000000000    0.0000000000000000
    -1.2280006920471027    2.1269595903553244    0.0000000000000000
     0.0000000000000000    0.0000000000000000    6.6960421735944413

ATOMIC_POSITIONS (angstrom)
C  0.0000000000000000  0.0000000000000000  0.0000000000000000
C  0.0000000000000000  1.4179730602623621  0.0000000000000000
C  0.0000000000000000  0.0000000000000000  3.3480210867972207
C  1.2280006920471027  0.7089865301311811  3.3480210867972207

