&CONTROL
    calculation   = 'scf'
    forc_conv_thr =  1.00000e-02
    prefix        = 'int2'
    pseudo_dir    = '/home/mpicuntureo/pseudos'
    nstep         = 500
/
&SYSTEM
    ibrav = 0
    nat = 177
    ntyp = 4
    input_dft = "vdW-DF"
    ecutwfc = 40.0 
    ecutrho = 400.0 
    occupations = 'smearing' 
    degauss = 0.1
    smearing = 'gaussian' 
 /
 &ELECTRONS
    electron_maxstep = 500
    conv_thr = 1.0e-6 
    mixing_mode = 'local-TF' 
    mixing_beta = 0.4 
 /

&IONS
    ion_dynamics = "bfgs"
    bfgs_ndim = 2
/


ATOMIC_SPECIES
    V   50.94150 V.pbesol-spnl-kjpaw_psl.1.0.0.UPF   
    O   15.99940 O.pbesol-n-kjpaw_psl.1.0.0.UPF 
    C   12.01100 C.pbesol-n-kjpaw_psl.1.0.0.UPF
    Li   6.94100 Li.pbesol-sl-kjpaw_psl.1.0.0.UPF 
 
K_POINTS automatic
2 2 1 0 0 0

CELL_PARAMETERS (angstrom)
    15.9927511199999994    0.0000000000000000    0.0000000000000000
    -8.3521630499999997    7.4940460000000000    0.0000000000000000
     0.0000000000000000    0.0000000000000000   35.0000000000000000

ATOMIC_POSITIONS (angstrom)
V        5.578649518   4.401475938   7.900867087
V        3.024855855   1.912466064   7.911541854
V        8.130263874   6.893162974   7.882805799
V        5.836441619   1.588983320   9.208600689
V       -5.061031791   6.586688883   9.206194447
V        8.385612167   4.089033813   9.213027505
V        0.048735956   6.946989171   9.199911060
V       -2.496856332   4.451039311   9.206409381
V       10.949413993   1.948213765   9.210055421
V        2.858607964   6.631323592   7.895907203
V        0.315107859   4.126328568   7.907233862
V       13.750944363   1.641877807   7.885882807
V        5.512323213   4.423713050  12.690859066
V        2.967475511   1.924047007  12.691556595
V        8.061201849   6.923322791  12.686299193
V        5.731566920   1.660164369  14.149822573
V       -5.169769114   6.652468098  14.149885814
V        8.279035121   4.157648153  14.141184088
V        0.154424244   6.883041317  14.147087249
V       -2.393825830   4.381664282  14.141462989
V       11.055817073   1.885272539  14.142299023
V        2.917568923   6.614489965  12.686276148
V        0.373574790   4.116332343  12.691617174
V       13.817225092   1.619586738  12.678785606
O        4.497277541   2.943543474   8.502606417
O        1.947543809   0.440635019   8.488223148
O        7.046000869   5.440400501   8.492389837
O        6.894410725   3.077136583   8.659795468
O        4.345428957   0.580112973   8.645686370
O        9.444408812   5.571606320   8.654508109
O        9.892767035   0.464226881   8.646395821
O       -1.005804098   5.458850164   8.641221993
O       12.437226734   2.964025690   8.660195188
O        1.390841351   5.596949719   8.488756764
O       -1.158281625   3.094808810   8.495864283
O       12.291050178   0.600296539   8.488366215
O        2.743213068   6.722331260   6.280654581
O        0.224411206   4.197653021   6.289543290
O       13.611619379   1.762350293   6.274346687
O       -0.039718464   7.051624139  10.804578304
O       -2.583449725   4.565428859  10.810588915
O       10.859355987   2.047854331  10.815013239
O        5.921747095   1.475757768  10.812753706
O       -4.972197650   6.481156918  10.810797439
O        8.475132472   3.985477343  10.817768886
O        7.118140449   0.522506970   8.509101088
O       -3.777100120   5.520359893   8.511861074
O        9.665127322   3.017013218   8.521942362
O        4.218788428   5.517392427   8.247799148
O        1.670780625   3.020579323   8.298452424
O       15.116426058   0.520029781   8.194082115
O        5.690443530   4.294373457   6.285892774
O        3.120682999   1.844205504   6.294052507
O        8.271140398   6.773961838   6.271366103
O        4.448451368   2.946972200  13.236295634
O        1.901258546   0.448995369  13.235258135
O        6.996735413   5.445480807  13.224891550
O        6.837846921   3.091005119  13.504664173
O        4.288804187   0.593713160  13.516055820
O        9.386432154   5.588422080  13.498962995
O        9.947208034   0.453403652  13.504201710
O       -0.951042579   5.448671106  13.509334305
O       12.490855883   2.953330098  13.493225788
O        1.436803483   5.593881551  13.234540069
O       -1.112753014   3.096053137  13.223531938
O       12.334035805   0.600093523  13.219285813
O        2.959473753   6.548332438  11.074850747
O        0.419145647   4.059819085  11.080439238
O       13.866551910   1.557944132  11.067138843
O        0.382784604   6.679088039  15.724253510
O       -2.167601168   4.163009627  15.717068372
O       11.292461401   1.676527229  15.717850888
O        5.512156260   1.870712882  15.727410762
O       -5.401331184   6.850243963  15.727488818
O        8.048985059   4.374129587  15.716473208
O        7.117983752   0.523225427  13.972894335
O       -3.780500395   5.519335769  13.975157557
O        9.666407091   3.020258129  13.978106624
O        4.216276141   5.522260720  13.296218294
O        1.669748474   3.019602324  13.298149754
O       15.112106807   0.523290917  13.289052888
O        5.468037968   4.476705984  11.079347497
O        2.925821788   1.982444167  11.079691713
O        8.023322891   6.985198108  11.074715531
C        8.348164256   1.865755225   3.514694014
C        4.449891362   3.492854889   3.473271077
C        2.962186334   5.455335281   3.451776330
C        2.023354473   3.165466035   3.454572614
C        1.479122353   7.405847525   3.461114775
C        0.538250959   5.125843601   3.440749086
C       -0.392611925   2.842410767   3.386990377
C       -0.939248239   7.078109085   3.511279943
C       -1.874172217   4.796731235   3.458284452
C       13.184165333   2.517345324   3.398252197
C        5.929958983   1.539296007   3.510292749
C       -3.357681782   6.751460294   3.514982403
C       -4.291458662   4.470902026   3.490012528
C       10.767396523   2.190856868   3.474367681
C        3.511197822   1.207255998   3.459317730
C       -5.776523009   6.425919165   3.464366832
C        9.282589951   4.146952916   3.483071431
C        1.092055282   0.886000352   3.400657155
C        7.799617179   6.100760155   3.393024494
C        6.865702302   3.820722541   3.457184889
C       14.669041434   0.563279992   3.361391252
C        5.386419668   5.779850105   3.410200553
C       12.250099725   0.238480464   3.401563178
C        5.753497812   2.947700284   3.476477637
C        4.268754259   4.908481863   3.454921809
C        3.330110594   2.619181083   3.464081942
C        2.780939347   6.866441791   3.423121908
C        1.841431740   4.580970738   3.458908530
C        0.906023140   2.293542885   3.409909247
C        0.362487887   6.533952267   3.474483033
C       -0.573608876   4.252792235   3.418875100
C       -1.507345620   1.972439240   3.365654152
C        7.231962811   0.994061025   3.523816674
C       -2.055290006   6.206126981   3.507502404
C       -2.989926350   3.925536876   3.450749972
C        4.812577933   0.667221227   3.501877243
C       -4.474695141   5.881198035   3.501387600
C       10.584545143   3.600897219   3.492171683
C        2.394188197   0.340907049   3.439848648
C        9.100279622   5.555875410   3.442934617
C        8.166443600   3.275872519   3.490259917
C       15.968961222   0.016041954   3.370812161
C        6.685167580   5.231012336   3.409903126
C        5.200426468   7.187095520   3.385341724
C       12.068662646   1.647324718   3.418791115
C        9.650393854   1.320585397   3.491399191
C        5.615256497   4.239508171  -0.391062287
C        1.704368784   5.871738260  -0.383933828
C        8.576768304   0.329127941  -0.237951367
C       -0.711301192   5.542258153  -0.278381814
C        7.093933313   2.284130503  -0.252749942
C       -2.193416538   7.496514521  -0.224360933
C       -3.128111936   5.215757555  -0.211560987
C        4.677639858   1.953784335  -0.351536592
C       -4.611617694   7.169950326  -0.264171429
C       10.446234116   4.890711139  -0.211359831
C        3.192759801   3.911483517  -0.504437196
C        2.256637253   1.626901631  -0.400832091
C       -7.029655846   6.844382975  -0.311445904
C        8.029178557   4.565109524  -0.273048189
C        0.768582163   3.587364557  -0.412226851
C       -0.161902669   1.305920997  -0.374591893
C        6.546783065   6.520452296  -0.368700682
C       -1.645742713   3.261542141  -0.301777504
C       13.413868275   0.982069930  -0.337662312
C        4.129276810   6.198637812  -0.419053252
C       11.930273375   2.935408076  -0.230124906
C       10.995209660   0.655998602  -0.293868809
C        9.511787326   2.609928223  -0.207943927
C        3.009288995   5.328825868  -0.456167908
C        1.525990028   7.279804315  -0.299436095
C        0.588305541   4.998344393  -0.367774540
C        8.395460486   1.739149986  -0.216232469
C       -0.891385203   6.951726084  -0.233833383
C       -1.826653758   4.670608643  -0.255615938
C        5.978270933   1.412065447  -0.266956586
C       -3.309774946   6.625723719  -0.220384146
C       -4.244510093   4.344975904  -0.204162091
C        4.500107854   3.364414356  -0.431721114
C        3.559564829   1.083573457  -0.345325061
C       -5.728410547   6.299850347  -0.255531042
C        2.071073821   3.037652015  -0.458919990
C        1.139699401   0.758894510  -0.368126648
C        7.847419541   5.974117089  -0.317977083
C       -0.345521344   2.715725688  -0.367768627
C       14.715278231   0.436101782  -0.365662634
C        5.431569202   5.650576436  -0.407977959
C       13.231516906   2.390672215  -0.284617449
C       12.297330351   0.112636876  -0.352019760
C       10.813936914   2.064614543  -0.231251933
C        9.330107685   4.019874819  -0.217018290
C        6.914020904   3.693713465  -0.301441322
Li       3.142760600   4.045771199   1.637298101
