BEGIN
BEGIN_PATH_INPUT
&PATH
               string_method = 'neb' ,
                restart_mode = 'from_scratch' ,
                  nstep_path = 500 ,
               num_of_images = 10 ,
                  opt_scheme = 'broyden' ,
  /
END_PATH_INPUT

BEGIN_ENGINE_INPUT
&CONTROL
    forc_conv_thr =  1.00000e-03
    prefix        = "liv16o40"
    pseudo_dir    = "~/pseudos"
    nstep         = 550
/

&SYSTEM
    ecutrho                   =  650
    ecutwfc                   =  65 
    ibrav                     =  0 
    nat                       = 57
    nspin                     = 1
    ntyp                      = 3
    occupations               = "smearing"
    smearing                  = "gaussian"
    degauss                   = 0.02
/

&ELECTRONS
    conv_thr         = 1.00000e-8
    diago_david_ndim = 4
    diagonalization  = "david"
    electron_maxstep = 500
    mixing_beta      = 0.2
    mixing_mode      = "local-TF"
    mixing_ndim      = 8
/

&IONS
    ion_dynamics = "bfgs"
    bfgs_ndim = 2
/

&CELL
    cell_dynamics  = "bfgs"
/

ATOMIC_SPECIES
    V   50.94150  V.pbe-spnl-kjpaw_psl.1.0.0.UPF
    O   15.99940  O.pbe-n-kjpaw_psl.1.0.0.UPF
    Li   6.94100  Li.pbe-s-kjpaw_psl.1.0.0.UPF

K_POINTS {automatic}
 2 2 2  0 0 0

CELL_PARAMETERS (angstrom)
   7.143841254   0.000000000   0.000000000
   0.000000000   9.170407344   0.000000000
   0.000000000   0.000000000  11.573064855

BEGIN_POSITIONS
FIRST_IMAGE
ATOMIC_POSITIONS (angstrom)
V             0.0272291061        1.7090302860        7.5282179658
V             1.7937680113        2.7771534519        9.8532766362
V             1.7937213001        2.8209735694        1.7428874188
V             0.0183135379        1.7732067168        4.0724877226
O             1.7937815565        2.2511550598        7.8271523309
O             0.0170124223        2.2517924537        9.4733091596
O             0.0217253912        2.3014808671        2.1144110525
O             1.7937467780        2.3216824049        3.7659050895
O             0.0650069121        0.1854516968        4.1204488749
O             1.7936820414        4.4119867486        1.7141446091
O             1.7936938065        4.3689951437        9.8372850883
O             1.7937484390        2.3466851999        0.0099503477
O            -0.1178758878        2.2839008538        5.8142759870
O             0.0538401809        0.1215315852        7.4519937847
V            -0.0259032655        6.3892592749        7.4583889009
V             1.7937134493        7.3076460432        9.8345514408
V             1.7936147497        7.3372592045        1.6951078878
V            -0.0084461265        6.3972719981        4.0595356769
O             1.7937152273        6.6931823147        7.8694934522
O            -0.0106846642        6.8651323446        9.4411352151
O            -0.0045276407        6.8782373907        2.0822385671
O             1.7936344561        6.7946490768        3.6678528994
O            -0.1145012344        4.8073261535        4.2027601023
O             1.7936240673        8.9263766687        1.6318847261
O             1.7937431825        8.8989284455        9.8782097266
O             1.7936715320        6.8175422898       -0.0224751855
O             0.0410413674        6.9443667744        5.7714389103
O            -0.2405859205        4.7977631001        7.2927490243
V             3.5603411212        1.7090422172        7.5282413084
V             5.3657317817        2.7402406903        9.8692563637
V             5.3656463629        2.7758909815        1.7318041176
V             3.5691469246        1.7731321786        4.0724605551
O             5.3657138081        2.2557214563        7.8667226070
O             3.5705628563        2.2519459379        9.4733010120
O             3.5657363230        2.3015148398        2.1143991884
O             5.3656500441        2.2530319748        3.6981933836
O             3.5223990080        0.1853679539        4.1203569073
O             5.3656705416        4.3645668910        1.6671930120
O             5.3658615913        4.3296322492        9.9053300942
O             5.3656829931        2.2610335455        0.0141478012
O             3.7054477444        2.2836951298        5.8142489885
O             3.5337085262        0.1215408093        7.4521361467
V             3.6133056615        6.3891891570        7.4583796701
V             5.3656212636        7.4022334473        9.8385680316
V             5.3655218898        7.4012310925        1.7023615777
V             3.5957166080        6.3973193998        4.0595634435
O             5.3656125603        6.9729708856        7.8227488609
O             3.5981041055        6.8650381920        9.4411700272
O             3.5917849158        6.8782032680        2.0822346721
O             5.3655656257        6.9403920730        3.7072314056
O             3.7017520930        4.8073837193        4.2028100724
O             5.3654576256        8.9920634163        1.6579706145
O             5.3656318782        8.9945402915        9.8901941025
O             5.3656234731        6.9020546368       -0.0192025195
O             3.5463527229        6.9444127735        5.7714735545
O             3.8279856604        4.7977030062        7.2926000880
Li            5.3658280376        3.7003467873        6.2751748852
      
LAST_IMAGE
ATOMIC_POSITIONS (angstrom)
V            -0.0144851548        1.7857035797        7.5000632840
V             1.7820599468        2.7878131502        9.8408902755
V             1.7821598262        2.7526923695        1.7033288729
V            -0.0232084542        1.7216740567        4.0444155661
O             1.7820414052        2.2653735308        7.8744208376
O            -0.0178818114        2.3135330244        9.4582456586
O            -0.0129686956        2.2643071150        2.0992722574
O             1.7821379275        2.2683067772        3.7058223861
O            -0.0497334923        0.1341757284        4.1206826757
O             1.7822316783        4.3420765376        1.6669319422
O             1.7821123847        4.3764868302        9.9055159546
O             1.7821196057        2.2730242096       -0.0145066925
O             0.1219387846        2.2964696100        5.7583266525
O            -0.0612457363        0.1979545127        7.4518711353
V             0.0120067348        6.4089236505        7.5130089122
V             1.7818049909        7.4133335287        9.8700317770
V             1.7819232347        7.4143404591        1.7339239370
V             0.0296449398        6.4011046237        4.1140361926
O             1.7818208845        6.9522032047        7.8651596008
O             0.0080853201        6.8901862492        9.4902286198
O             0.0144084838        6.8771794309        2.1313075720
O             1.7819225145        6.9850125006        3.7498134155
O             0.2443394807        4.8095981321        4.2794764507
O             1.7819499357        9.0066358919        1.6824215770
O             1.7817551024        9.0041758665        9.9142524254
O             1.7818664238        6.9143143169        0.0185611502
O            -0.0374563381        6.9559608903        5.8010780714
O             0.1181146568        4.8189618127        7.3699777012
V             3.5785198841        1.7856517170        7.5000680049
V             5.3539493173        2.8329275238        9.8298122317
V             5.3540592195        2.7893132501        1.7192529120
V             3.5874489078        1.7216270418        4.0444004557
O             5.3539425189        2.3341295381        7.8066960896
O             3.5819684656        2.3133945601        9.4582635905
O             3.5772572336        2.2641924608        2.0992644468
O             5.3540465404        2.2636285455        3.7454040931
O             3.6138919467        0.1341273624        4.1206867914
O             5.3539955073        4.3811617365        1.7348860450
O             5.3538371094        4.4239386464        9.8587540769
O             5.3540377672        2.3584427365       -0.0103841111
O             3.4422728142        2.2964553121        5.7583147132
O             3.6251608623        0.1978991618        7.4518566263
V             3.5516771327        6.4090345067        7.5129736339
V             5.3537420391        7.3492697992        9.8773098388
V             5.3538543069        7.3198017650        1.7379712786
V             3.5342849988        6.4012339913        4.1140458910
O             5.3537733934        6.8064168613        7.9046448263
O             3.5555708137        6.8902756151        9.4901713103
O             3.5494538235        6.8772435434        2.1313558224
O             5.3538787706        6.7053427751        3.7029773353
O             3.3197359938        4.8097129422        4.2795217589
O             5.3539013200        8.9110860085        1.6944724463
O             5.3537901071        8.9383870582        9.9402876189
O             5.3537191662        6.8298081484        0.0218893410
O             3.6011715323        6.9561444130        5.8010769385
O             3.4456256914        4.8190778585        7.3698147686
Li            1.7822756620        3.7127234711        5.2976268579

END_POSITIONS
END_ENGINE_INPUT
END
