&CONTROL
    calculation   = 'scf'
    forc_conv_thr =  1.00000e-02
    prefix        = 'CNT_ox'
    pseudo_dir    = '/home/mpicuntureo/pseudos'
    nstep         = 500
/
&SYSTEM
    ibrav = 0
    nat = 93
    ntyp = 2
    input_dft = "vdW-DF"
    ecutwfc = 40.0 
    ecutrho = 400.0 
    occupations = 'smearing' 
    degauss = 0.1
    smearing = 'gaussian' 
 /
 &ELECTRONS
    electron_maxstep = 500
    conv_thr = 1.0e-6 
    mixing_mode = 'local-TF' 
    mixing_beta = 0.4 
 /

&IONS
    ion_dynamics = "bfgs"
    bfgs_ndim = 2
/

ATOMIC_SPECIES
    O   15.99940 O.pbesol-n-kjpaw_psl.1.0.0.UPF 
    C   12.01100 C.pbesol-n-kjpaw_psl.1.0.0.UPF
 
K_POINTS automatic
2 2 1 0 0 0

CELL_PARAMETERS (angstrom)
    15.9927511199999994    0.0000000000000000    0.0000000000000000
    -8.3521630499999997    7.4940460000000000    0.0000000000000000
     0.0000000000000000    0.0000000000000000   35.0000000000000000

ATOMIC_POSITIONS (crystal)
O             0.3889125286        0.5656328819        0.1535610064
C             0.3235291891        0.8393561862        0.1031058208
C             0.1930513891        0.0566738724        0.1033690409
C             0.2341511112        0.3133375404        0.1082830952
C             0.0186375300        0.0122021221        0.1037930308
C             0.2786783168        0.5793952048        0.1075219849
C             0.0621493813        0.2737373666        0.1053931093
C             0.8449778811        0.9693854495        0.1043739975
C             0.1060666369        0.5354436865        0.1027251321
C             0.8889901616        0.2312082063        0.1029983203
C             0.6718548090        0.9274239205        0.1054234169
C             0.1496919084        0.7961047967        0.1017337483
C             0.9321678860        0.4916008333        0.1014390751
C             0.7148689647        0.1872861070        0.1024455054
C             0.4980762812        0.8834012101        0.1057638675
C             0.9755820594        0.7520716122        0.1018003618
C             0.7580847030        0.4476977677        0.1013506433
C             0.5408735413        0.1436134496        0.1022765094
C             0.8016440827        0.7084306994        0.1023966011
C             0.5842241457        0.4042955411        0.1025311155
C             0.3670165080        0.1001937907        0.1023437497
C             0.6279120615        0.6648996845        0.1055531585
C             0.4110721587        0.3617948962        0.1060607465
C             0.4568219422        0.6248171449        0.1156257792
C             0.2365327793        0.9840331211        0.1022991366
C             0.2793086216        0.2443512141        0.1061448056
C             0.0624906077        0.9402342159        0.1028871852
C             0.3206754620        0.5034767102        0.1155544236
C             0.1055378416        0.2002728302        0.1058281261
C             0.8884155930        0.8964168740        0.1034292157
C             0.1495262285        0.4628217890        0.1049350905
C             0.9324561796        0.1583027205        0.1042173902
C             0.7153080752        0.8540442649        0.1055307503
C             0.1931210095        0.7233270743        0.1023015433
C             0.9756909920        0.4191015893        0.1021122974
C             0.7587878937        0.1154119171        0.1032715209
C             0.0191590679        0.6796839088        0.1015370953
C             0.8016831742        0.3753273442        0.1014642313
C             0.5843687593        0.0709872539        0.1031333801
C             0.8451051181        0.6358352410        0.1015495140
C             0.6276006222        0.3314176270        0.1017644816
C             0.4103973011        0.0275154366        0.1023715582
C             0.6713186112        0.5922332103        0.1031738581
C             0.4538162290        0.2883644069        0.1032391348
C             0.4987593828        0.5484326006        0.1081548801
C             0.5432622960        0.8144734613        0.1078219137
C             0.3663522659        0.7660368402        0.1056757033
C             0.3212122600        0.1568856100        0.0016552300    0   0   0
C             0.1907681000        0.3742549100        0.0015529900    0   0   0
C             0.2342434700        0.6351319200        0.0023125300    0   0   0
C             0.0168465300        0.3307731100        0.0020326500    0   0   0
C             0.2777231700        0.8960109300        0.0023797600    0   0   0
C             0.0603313200        0.5916586700        0.0024919200    0   0   0
C             0.8429415500        0.2873144500        0.0024248200    0   0   0
C             0.1038156100        0.8525420700        0.0019843900    0   0   0
C             0.8864192900        0.5481853100        0.0022937900    0   0   0
C             0.6690266600        0.2438395400        0.0024631300    0   0   0
C             0.1472997600        0.1134062100        0.0013334000    0   0   0
C             0.9299050300        0.8090547700        0.0015316100    0   0   0
C             0.7125030400        0.5046949100        0.0018300000    0   0   0
C             0.4951196000        0.2003718400        0.0021311700    0   0   0
C             0.9733812100        0.0699186100        0.0013568900    0   0   0
C             0.7559935800        0.7655767600        0.0013066500    0   0   0
C             0.5385959900        0.4612161400        0.0014069400    0   0   0
C             0.7994632900        0.0264301400        0.0017053000    0   0   0
C             0.5820804100        0.7220937900        0.0014280400    0   0   0
C             0.3646836600        0.4177448700        0.0012970600    0   0   0
C             0.6255490800        0.9829542400        0.0021802100    0   0   0
C             0.4081524700        0.6786032100        0.0018572400    0   0   0
C             0.4516401000        0.9394808600        0.0024668100    0   0   0
C             0.2341831100        0.3015253200        0.0013262600    0   0   0
C             0.2776575900        0.5623819800        0.0019217100    0   0   0
C             0.0602639100        0.2580302700        0.0016243300    0   0   0
C             0.3211243000        0.8232517700        0.0024907500    0   0   0
C             0.1037300800        0.5188972600        0.0023624900    0   0   0
C             0.8863446500        0.2145460000        0.0021053700    0   0   0
C             0.1472239000        0.7797893700        0.0023614200    0   0   0
C             0.9298205400        0.4754322600        0.0025050600    0   0   0
C             0.7124219900        0.1710596800        0.0024608200    0   0   0
C             0.1907090300        0.0406585200        0.0016309800    0   0   0
C             0.9733060600        0.7363049000        0.0019505300    0   0   0
C             0.7559195300        0.4319773700        0.0022560400    0   0   0
C             0.0168072700        0.9971921600        0.0013409800    0   0   0
C             0.7994033300        0.6928217400        0.0015041800    0   0   0
C             0.5820087700        0.3884848200        0.0017761000    0   0   0
C             0.8428879300        0.9537071400        0.0014008000    0   0   0
C             0.6254903200        0.6493441600        0.0013019500    0   0   0
C             0.4081063600        0.3450049400        0.0013894200    0   0   0
C             0.6689649600        0.9102130200        0.0017712500    0   0   0
C             0.4515688900        0.6058542300        0.0014770500    0   0   0
C             0.4950411200        0.8667281400        0.0022367400    0   0   0
C             0.5385288000        0.1276182800        0.0024540000    0   0   0
C             0.3646147300        0.0841484700        0.0020961900    0   0   0
