&CONTROL
    calculation   = 'scf'
    forc_conv_thr =  1.00000e-02
    prefix        = 'C91'
    outdir        = 'outdir'
    pseudo_dir    = '/home/mpicuntureo/pseudos'
    nstep         = 500
/
&SYSTEM
    ibrav = 0
    nat = 91
    ntyp = 1
    input_dft = "vdW-DF"
    ecutwfc = 40.0 
    ecutrho = 400.0 
    occupations = 'smearing' 
    degauss = 0.1
    smearing = 'gaussian' 
 /
 &ELECTRONS
    electron_maxstep = 500
    conv_thr = 1.0e-6 
    mixing_mode = 'local-TF' 
    mixing_beta = 0.4 
 /
&IONS
    ion_dynamics = "bfgs"
    bfgs_ndim = 2
/
ATOMIC_SPECIES
    C   12.01100 C.pbesol-n-kjpaw_psl.1.0.0.UPF
 
K_POINTS automatic
2 2 1 0 0 0

CELL_PARAMETERS (angstrom)
    15.9927511199999994    0.0000000000000000    0.0000000000000000
    -8.3521630499999997    7.4940460000000000    0.0000000000000000
     0.0000000000000000    0.0000000000000000   35.0000000000000000

ATOMIC_POSITIONS (angstrom)
C            -1.7542332400        6.2939937690        3.6910065790
C             2.6493656640        0.3683820570        3.3756818510
C             1.2113746860        2.3567210250        3.4744951960
C             0.2128772500        0.0870413930        3.3928942120
C            -0.1113651820        4.3635894340        3.6671371550
C            -1.2185746980        2.0679122460        3.5463520550
C             5.4107276950        7.2693022530        3.5482889170
C            -2.6487162520        4.0283669560        3.6632584510
C            12.3433455530        1.7709509440        3.7329750520
C             3.0257629690        7.0113546770        3.9809118170
C            -4.1966815780        5.9514970870        3.5298034350
C            10.8584348910        3.7093519450        3.6625404030
C             9.8979657930        1.4665528450        3.8738065200
C             0.6267659620        6.6846894800        4.0214432020
C             9.3256787170        5.6206148990        3.4204264080
C             8.3927305030        3.3794198360        3.5627261210
C             7.4695119790        1.1164999350        3.6888980680
C             6.8444578070        5.3089606390        3.4134614070
C             5.9447341840        3.0460139160        3.4299689670
C             5.0663226870        0.7434634660        3.4822972090
C             4.3039734400        4.9720083390        3.5308633420
C             3.5281835180        2.6772149840        3.4354324120
C            -4.3874245910        7.3461156690        3.4432395210
C             2.4718725100        1.7487386150        3.4052401120
C            -6.8400488630        7.0180827480        3.3617464990
C             1.2421155760        3.7714996830        3.5633961250
C             0.0654629400        1.5047238700        3.4635804350
C             6.7099717610        6.7225266450        3.4244650110
C            -1.3095770050        3.4879879770        3.6268923010
C            13.6289381730        1.2027593610        3.6012005040
C             4.2729873410        6.4059945790        3.6892364540
C            -2.8739183650        5.4245471760        3.6273123060
C            12.1884321630        3.1772918850        3.7005519540
C            11.2098413150        0.9348602340        3.8865951820
C            -5.3386592600        5.0981274510        3.5268257970
C             9.7149503350        2.8599472630        3.7080048980
C             8.7741360960        0.6046920290        3.8848468250
C             8.1791597640        4.7712556220        3.4425550260
C             7.2692610920        2.5162813380        3.5424208440
C             6.3767205280        0.2155041850        3.6324135850
C             5.6796390690        4.4452730820        3.4263445720
C             4.8545892680        2.1588811510        3.4298686230
C             3.1379637850        4.0368044720        3.5109680960
C             1.9106193800        6.2556395030        4.2468507900
C            -0.4328835280        5.7618203320        3.8114348540
C             3.8267335360        1.1757079800        0.0579330500    0   0   0
C            -0.0749312860        2.8046835150        0.0543546500    0   0   0
C            -1.5585278370        4.7597078310        0.0809385500    0   0   0
C            -2.4932485860        2.4788289050        0.0711427500    0   0   0
C            -3.0420718440        6.7147471350        0.0832916000    0   0   0
C            -3.9767658960        4.4339172950        0.0872172000    0   0   0
C            11.0812572850        2.1531477080        0.0848687000    0   0   0
C            -5.4602731630        6.3889894980        0.0694536500    0   0   0
C             9.5977500020        4.1081259350        0.0802826500    0   0   0
C             8.6629892700        1.8273447320        0.0862095500    0   0   0
C             1.4085412450        0.8498713560        0.0466690000    0   0   0
C             8.1143823550        6.0630936710        0.0536063500    0   0   0
C             7.1795896120        3.7822068770        0.0640500000    0   0   0
C             6.2447862590        1.5015957880        0.0745909500    0   0   0
C            14.9830718060        0.5239732800        0.0474911500    0   0   0
C             5.6961952460        5.7372674640        0.0457327500    0   0   0
C             4.7614792200        3.4563749740        0.0492429000    0   0   0
C            12.5648685880        0.1980686850        0.0596855000    0   0   0
C             3.2780220580        5.4114040860        0.0499814000    0   0   0
C             2.3432217440        3.1305992760        0.0453971000    0   0   0
C             1.7944566670        7.3663043000        0.0763073500    0   0   0
C             0.8596762160        5.0854836780        0.0650034000    0   0   0
C            -0.6237296100        7.0405127900        0.0863383500    0   0   0
C             1.2268435580        2.2596446210        0.0464191000    0   0   0
C            -0.2565972600        4.2145164330        0.0672598500    0   0   0
C            -1.1913251730        1.9336907150        0.0568515500    0   0   0
C            -1.7402720060        6.1694866420        0.0871762500    0   0   0
C            -2.6749851690        3.8886399410        0.0826871500    0   0   0
C            12.3831662200        1.6078175950        0.0736879500    0   0   0
C            -4.1584127710        5.8437774170        0.0826497000    0   0   0
C            10.8995007280        3.5629112310        0.0876771000    0   0   0
C             9.9648692400        1.2819291120        0.0861287000    0   0   0
C             2.7103754650        0.3046968200        0.0570843000    0   0   0
C             9.4161030020        5.5179027980        0.0682685500    0   0   0
C             8.4812874820        3.2372582860        0.0789614000    0   0   0
C            -8.0599170260        7.4730039280        0.0469343000    0   0   0
C             6.9980983640        5.1920379960        0.0526463000    0   0   0
C             6.0632328490        2.9113231150        0.0621635000    0   0   0
C             5.5145793510        7.1471251870        0.0490280000    0   0   0
C             4.5798827160        4.8662150110        0.0455682500    0   0   0
C             3.6452059340        2.5854828940        0.0486297000    0   0   0
C             3.0963425600        6.8211782510        0.0619937500    0   0   0
C             2.1616355580        4.5402994750        0.0516967500    0   0   0
C             0.6780146810        6.4953005590        0.0782859000    0   0   0
C             7.5466683870        0.9563772620        0.0858900000    0   0   0
C             5.1283708900        0.6306125060        0.0733666500    0   0   0

