&CONTROL
    calculation   = 'scf'
    forc_conv_thr =  1.00000e-02
    prefix        = 'C92'
    outdir        = 'outdir'
    pseudo_dir    = '/home/mpicuntureo/pseudos'
    nstep         = 500
/
&SYSTEM
    ibrav = 0
    nat = 92
    ntyp = 1
    input_dft = "vdW-DF"
    ecutwfc = 40.0 
    ecutrho = 400.0 
    occupations = 'smearing' 
    degauss = 0.1
    smearing = 'gaussian' 
 /
 &ELECTRONS
    electron_maxstep = 500
    conv_thr = 1.0e-6 
    mixing_mode = 'local-TF' 
    mixing_beta = 0.4 
 /
&IONS
    ion_dynamics = "bfgs"
    bfgs_ndim = 2
/
ATOMIC_SPECIES
    C   12.01100 C.pbesol-n-kjpaw_psl.1.0.0.UPF
 
K_POINTS automatic
2 2 1 0 0 0

CELL_PARAMETERS (angstrom)
    15.9927511199999994    0.0000000000000000    0.0000000000000000
    -8.3521630499999997    7.4940460000000000    0.0000000000000000
     0.0000000000000000    0.0000000000000000   35.0000000000000000

ATOMIC_POSITIONS (angstrom)
C            -1.7939146970        6.2979132720        3.5268513330
C             2.6562753710        0.4324978990        3.3189794970
C             1.1722486880        2.3889306450        3.2793517230
C             0.2383229920        0.1074318100        3.2837885360
C            -0.3097360510        4.3423057880        3.4116544880
C            -1.2460568470        2.0627943600        3.3463090160
C             5.4591901360        7.2763610000        3.2982314370
C            -2.7274701410        4.0159455230        3.5100962210
C            12.3307770650        1.7350027850        3.4534574070
C             3.0422926850        6.9498006060        3.3744070790
C            -4.2140973620        5.9743004940        3.4820204640
C            10.8447079070        3.6925375840        3.5261854560
C             9.9116748360        1.4097967710        3.5238656740
C             0.6257950460        6.6222987050        3.4816350250
C             9.3619167250        5.6463514750        3.3767419700
C             8.4257060320        3.3671620770        3.4540201050
C             7.4913400550        1.0866487390        3.5054415240
C             6.9440298500        5.3201700680        3.3061039960
C             6.0090253460        3.0390677140        3.3406516370
C             5.0738617090        0.7594990980        3.4101436070
C             4.5259650370        4.9952078190        3.2747666640
C             3.5912541150        2.7136563010        3.2872349110
C             2.1064399980        4.6695548350        3.3154582920
C            -4.3947859080        7.3826382540        3.4012449320
C             2.4745563510        1.8428854710        3.2819371910
C            -6.8116496200        7.0558311530        3.3095458070
C             0.9905047420        3.7989529710        3.3178282880
C             0.0558044180        1.5178967480        3.2903084080
C             6.7621888130        6.7305933030        3.2863789440
C            -1.4259501530        3.4706936320        3.4296156540
C            13.6304351560        1.1919100390        3.3551540810
C             4.3435028010        6.4057275520        3.2995520100
C            -2.9112927650        5.4274138990        3.5273432110
C            12.1481989700        3.1449958330        3.5184997800
C            11.2139522980        0.8632259480        3.4632053060
C            -5.3310852100        5.1028831120        3.4717761990
C             9.7275840910        2.8213978330        3.5212504000
C             8.7946413270        0.5390700260        3.5255953170
C             8.2456365900        4.7757625280        3.3740076250
C             7.3093040780        2.4957502100        3.4366886590
C             6.3741924590        0.2152656990        3.4960366660
C             5.8277649150        4.4492744530        3.2897808290
C             4.8937296320        2.1685279720        3.3340536130
C             3.4090272260        4.1241716820        3.2814603780
C             1.9263162430        6.0783037020        3.3884978490
C            -0.4910876330        5.7507082960        3.4913387890
C             3.8163617790        1.1886630500       -0.2502801170
C            -0.0860960110        2.8186116000       -0.2583030040
C            -1.5687433430        4.7726780490       -0.1396068110
C            -2.5036145080        2.4920590100       -0.1832357010
C            -3.0532561190        6.7285902700       -0.1339911200
C            -3.9875145360        4.4473176640       -0.1156174670
C            11.0709040470        2.1659592810       -0.1251234630
C            -5.4710005760        6.4023281020       -0.2003501110
C             9.5866253910        4.1218839770       -0.1525265050
C             8.6520738280        1.8410246700       -0.1213903080
C             1.3980677640        0.8628932090       -0.3015493880
C             8.1040337120        6.0760008920       -0.2729576260
C             7.1690371320        3.7956190670       -0.2253711700
C             6.2338018410        1.5152658370       -0.1746362100
C            14.9719469110        0.5378145710       -0.2942907700
C             5.6854418350        5.7505759160       -0.3059504310
C             4.7510386590        3.4693600040       -0.2894146410
C            12.5539004730        0.2116593600       -0.2339899530
C             3.2667102150        5.4251673490       -0.2789147390
C             2.3322941540        3.1441561010       -0.3034041120
C             1.7841379530        7.3792375120       -0.1587907960
C             0.8490801700        5.0989621740       -0.2092967040
C            -0.6343787280        7.0537878470       -0.1164976950
C             1.2158102030        2.2733290940       -0.3009125390
C            -0.2672658250        4.2277478960       -0.1998284640
C            -1.2025173360        1.9474626080       -0.2502597960
C            -1.7509148830        6.1827292460       -0.1153676440
C            -2.6852071080        3.9015329710       -0.1339179910
C            12.3726992330        1.6209078790       -0.1744809100
C            -4.1698126910        5.8576557410       -0.1390380620
C            10.8886878950        3.5765115520       -0.1167789640
C             9.9544261290        1.2951745800       -0.1210528370
C             2.6999579190        0.3176677920       -0.2585812400
C             9.4054252220        5.5313658610       -0.2091007410
C             8.4701744840        3.2510122690       -0.1589236360
C            -8.0704569670        7.4860492630       -0.3037900030
C             6.9877302230        5.2049895530       -0.2784732660
C             6.0527134840        2.9244441110       -0.2339897250
C             5.5032792510        7.1608883040       -0.2894447970
C             4.5690302380        4.8798018740       -0.3057302830
C             3.6347015920        2.5985711180       -0.2934055420
C             3.0854289510        6.8347783830       -0.2249666000
C             2.1503336180        4.5544199220       -0.2727878450
C             0.6677031430        6.5081870620       -0.1517312010
C             7.5354119170        0.9700255140       -0.1244287090
C             5.1174184750        0.6441957870       -0.1827122530

