&CONTROL
    calculation   = 'scf'
    forc_conv_thr =  1.00000e-02
    prefix        = 'int3'
    pseudo_dir    = '/home/mpicuntureo/pseudos'
    nstep         = 500
/
&SYSTEM
    ibrav = 0
    nat = 177
    ntyp = 4
    input_dft = "vdW-DF"
    ecutwfc = 40.0 
    ecutrho = 400.0 
    occupations = 'smearing' 
    degauss = 0.1
    smearing = 'gaussian' 
 /
 &ELECTRONS
    electron_maxstep = 500
    conv_thr = 1.0e-6 
    mixing_mode = 'local-TF' 
    mixing_beta = 0.4 
 /

&IONS
    ion_dynamics = "bfgs"
    bfgs_ndim = 2
/


ATOMIC_SPECIES
    V   50.94150 V.pbesol-spnl-kjpaw_psl.1.0.0.UPF   
    O   15.99940 O.pbesol-n-kjpaw_psl.1.0.0.UPF 
    C   12.01100 C.pbesol-n-kjpaw_psl.1.0.0.UPF
    Li   6.94100 Li.pbesol-sl-kjpaw_psl.1.0.0.UPF 
 
K_POINTS automatic
2 2 1 0 0 0

CELL_PARAMETERS (angstrom)
    15.9927511199999994    0.0000000000000000    0.0000000000000000
    -8.3521630499999997    7.4940460000000000    0.0000000000000000
     0.0000000000000000    0.0000000000000000   35.0000000000000000

ATOMIC_POSITIONS (angstrom)
V        5.478283989   4.423805343   7.904633794
V        2.988112883   1.981861392   7.994852023
V        8.102293759   6.943643965   7.714904270
V        5.841417045   1.580160452   9.072827733
V       -5.052876114   6.550455966   8.916271723
V        8.386748630   4.074329566   8.877552545
V        0.050103888   6.967078824   9.077571580
V       -2.501221911   4.469864507   8.872977797
V       10.943494804   2.000803471   8.910153125
V        2.899863221   6.565512471   7.992580453
V        0.408105258   4.121610725   7.914631972
V       13.784553727   1.596869044   7.712342923
V        5.541171740   4.425177088  12.516812338
V        2.979708135   1.906585170  12.528040877
V        8.072573316   6.921737576  12.551692504
V        5.736443641   1.682755620  14.007331886
V       -5.163731355   6.662869849  14.022460842
V        8.283656177   4.163690505  14.015176315
V        0.152665016   6.871944694  14.004424279
V       -2.394930453   4.392539866  14.013071258
V       11.052008755   1.894075148  14.020546298
V        2.909775736   6.648590240  12.526083344
V        0.345812746   4.129879299  12.513740396
V       13.810353334   1.630827429  12.554662659
O        4.444952862   2.983556180   8.629435752
O        1.955250976   0.428165713   8.328932415
O        7.049618863   5.420910312   8.178941427
O        6.849416316   3.064335508   8.401528797
O        4.353149627   0.599409426   8.452524599
O        9.452354289   5.558827919   8.303567512
O        9.888241976   0.455611197   8.456457653
O       -0.961642314   5.480907164   8.408635309
O       12.427279359   2.988962648   8.284699971
O        1.443466520   5.564398753   8.632027970
O       -1.162896151   3.123480780   8.178194390
O       12.285260037   0.625391974   8.323235351
O        2.857241944   6.271096264   6.370295975
O        0.742732226   4.188607261   6.305546947
O       13.743621454   1.503716310   6.096474207
O       -0.079860014   7.101101660  10.676033739
O       -2.621861174   4.538993357  10.475959739
O       10.875728833   2.191480606  10.506262228
O        5.972212216   1.453405711  10.671607245
O       -4.971026455   6.368064759  10.512705846
O        8.508660227   3.993314321  10.480147979
O        7.121840228   0.524655341   8.357105250
O       -3.747391526   5.556410986   8.147904481
O        9.633704802   2.993972735   8.145893278
O        4.270085799   5.565966036   8.564557753
O        1.614706725   2.977355581   8.570793797
O       15.117788760   0.523113435   8.259924175
O        5.145744534   4.358885045   6.296941682
O        3.026729993   2.276595451   6.372463753
O        8.157856883   7.027864616   6.098954092
O        4.469829571   2.942879161  13.027054159
O        1.907213290   0.455735476  13.117007116
O        7.000743034   5.451773201  13.106225057
O        6.856942286   3.094421424  13.346704545
O        4.296500689   0.602474566  13.383931940
O        9.391038771   5.596080345  13.374921502
O        9.944459003   0.460283533  13.381712033
O       -0.970095697   5.461550337  13.343416956
O       12.490603061   2.959386667  13.372868570
O        1.415498695   5.614938226  13.018357577
O       -1.111083691   3.102434435  13.108164788
O       12.334827490   0.604123987  13.118966571
O        2.937661681   6.698233037  10.912490170
O        0.298486120   4.074335050  10.902786270
O       13.823269872   1.593007642  10.942849436
O        0.415399165   6.586102501  15.564138744
O       -2.162558761   4.198139289  15.590394341
O       11.269290909   1.695499815  15.599526288
O        5.476153598   1.962167389  15.568382913
O       -5.382757402   6.863797333  15.601069581
O        8.056454482   4.357148490  15.593344118
O        7.120337528   0.530089901  13.924308153
O       -3.780506633   5.527297669  13.829913977
O        9.668619541   3.029552134  13.830836539
O        4.207570034   5.516869999  13.054876658
O        1.679173697   3.038516796  13.050301464
O       15.119134774   0.530104535  13.124154625
O        5.588397151   4.479957194  10.906033009
O        2.957258992   1.855111162  10.914429060
O        8.057816426   6.956831786  10.939711672
C        8.350478164   1.862958056   3.564184580
C        4.450551533   3.489750438   3.287886351
C        2.964692561   5.449460902   3.248172485
C        2.030357314   3.165078358   3.237649083
C        1.483017106   7.401207933   3.436606487
C        0.544863579   5.122847285   3.344860903
C       -0.389652423   2.841629231   3.284210415
C       -0.935236477   7.074752210   3.541694606
C       -1.869900868   4.794068225   3.475623396
C       13.186364456   2.515271950   3.381344157
C        5.930286801   1.539094017   3.503631535
C       -3.356140668   6.751526797   3.552822086
C       -4.289022855   4.468818124   3.552557156
C       10.770658372   2.187154989   3.515297871
C        3.513746988   1.210076034   3.376890116
C       -5.774884182   6.425963751   3.468313963
C        9.283529263   4.145930798   3.533277838
C        1.096050428   0.884064241   3.278854208
C        7.802112932   6.097621054   3.333735122
C        6.865790771   3.818596893   3.427706807
C       14.670521652   0.560462182   3.247093958
C        5.384644334   5.773274765   3.264854700
C       12.250966417   0.235400132   3.319287305
C        5.750321598   2.946898772   3.406466804
C        4.268342706   4.901536995   3.243540966
C        3.333995399   2.618626134   3.276729263
C        2.782644484   6.859950809   3.322435079
C        1.846791777   4.577628502   3.254059992
C        0.913089239   2.294325716   3.252167289
C        0.366306146   6.529740361   3.449922572
C       -0.570100761   4.251074825   3.363566314
C       -1.505766286   1.971309976   3.284713177
C        7.233199903   0.992363451   3.561995254
C       -2.052530788   6.203997495   3.546816018
C       -2.986981735   3.922414766   3.483008295
C        4.813163949   0.667932065   3.491155382
C       -4.473381752   5.880734551   3.546976363
C       10.586825237   3.598406129   3.559043848
C        2.397247318   0.340471936   3.371486439
C        9.101618917   5.554880651   3.448881213
C        8.166503335   3.274422193   3.527512399
C       15.972315311   0.013635259   3.261972115
C        6.686251525   5.227332311   3.331596869
C        5.201247660   7.183919911   3.262093914
C       12.070389854   1.644156095   3.405972107
C        9.653764928   1.315819943   3.527765900
C        5.607875593   4.247840836  -0.240173490
C        1.705639917   5.877365864  -0.238164697
C        8.574964453   0.337610241  -0.139004020
C       -0.712081354   5.550961854  -0.176256963
C        7.090689717   2.293471012  -0.139561467
C       -2.195907850   7.506339280  -0.122575544
C       -3.130321230   5.225071251  -0.138599539
C        4.672837761   1.967362739  -0.197722761
C       -4.614262147   7.180778244  -0.166293213
C       10.443738260   4.899862360  -0.143706188
C        3.189627161   3.922082257  -0.277292621
C        2.255089335   1.641153900  -0.263343202
C       -7.031971909   6.854572123  -0.233174529
C        8.025581975   4.574137259  -0.185302545
C        0.770967725   3.596667411  -0.272301159
C       -0.163485188   1.315669073  -0.292938704
C        6.542656876   6.528626827  -0.280374268
C       -1.647166541   3.270641701  -0.229810430
C       13.410639809   0.990116447  -0.270162093
C        4.123962855   6.203177805  -0.282046024
C       11.927784946   2.944277644  -0.172005246
C       10.992807263   0.663799372  -0.205215191
C        9.509376722   2.618704006  -0.131402387
C        3.007471628   5.332327165  -0.275358669
C        1.524298242   7.286923998  -0.191117755
C        0.589287578   5.006468572  -0.231536481
C        8.392929276   1.747993443  -0.123131377
C       -0.893641431   6.960830759  -0.133460105
C       -1.828445294   4.680146277  -0.175561206
C        5.974286451   1.422574426  -0.143433236
C       -3.312324218   6.635537202  -0.130208378
C       -4.246761656   4.354437698  -0.140595456
C        4.491484355   3.376931657  -0.244288873
C        3.556548739   1.096346480  -0.210092833
C       -5.730601535   6.309872706  -0.176795373
C        2.073143951   3.051262643  -0.281543908
C        1.138631727   0.770187274  -0.272969002
C        7.844381592   5.983550816  -0.238142246
C       -0.345474781   2.725807660  -0.273869505
C       14.712733782   0.444717920  -0.293683540
C        5.426173873   5.657664079  -0.277833583
C       13.229204607   2.399782936  -0.226469525
C       12.294219067   0.119150801  -0.260098837
C       10.811399032   2.073530451  -0.162365822
C        9.327326629   4.029141693  -0.143654620
C        6.909233704   3.703204194  -0.185582767
Li       2.909727106   4.269922513   5.966788497
