&CONTROL
    calculation   = 'vc-relax'
    forc_conv_thr =  1.00000e-02
    prefix        = 'lithium'
    pseudo_dir    = '/home/mpicuntureo/pseudos'
    nstep         = 500
/
&SYSTEM
    ibrav = 0
    nat = 2
    ntyp = 1
    input_dft = "vdW-DF"
    ecutwfc = 40.0 
    ecutrho = 400.0 
    occupations = 'smearing' 
    degauss = 0.1
    smearing = 'gaussian' 
 /
 &ELECTRONS
    electron_maxstep = 500
    conv_thr = 1.0e-6 
    mixing_mode = 'plain' 
    mixing_beta = 0.4 
 /

&IONS
    ion_dynamics = "bfgs"
    bfgs_ndim = 2
/

&CELL
    cell_dynamics  = "bfgs"
/

ATOMIC_SPECIES
    Li   6.94100 Li.pbesol-sl-kjpaw_psl.1.0.0.UPF 
 
K_POINTS automatic
6 6 6 0 0 0

CELL_PARAMETERS (angstrom)
   3.4393124531669552    0.0000000000000000    0.0000000000000000
   0.0000000000000000    3.4393124531669552    0.0000000000000000
   0.0000000000000000    0.0000000000000000    3.4393124531669552

ATOMIC_POSITIONS (angstrom)
Li  0.0000000000000000  0.0000000000000000  0.0000000000000000
Li  1.7196562265834778  1.7196562265834776  1.7196562265834778

