&CONTROL
    calculation   = "relax"
    forc_conv_thr =  1.00000e-05
    prefix        = "v2o5"
    pseudo_dir    = "~/pseudos"
    nstep         = 550
/

&SYSTEM
    ecutrho                   = 650
    ecutwfc                   = 65 
    ibrav                     = 0 
    nat                       = 57
    nspin                     = 1
    ntyp                      = 3
    occupations               = "smearing"
    smearing                  = "gaussian"
    degauss                   = 0.02
/

&ELECTRONS
    conv_thr         = 1.00000e-10
    diago_david_ndim = 4
    diagonalization  = "david"
    electron_maxstep = 500
    mixing_beta      = 0.2
    mixing_mode      = "local-TF"
    mixing_ndim      = 8
/

&IONS
    ion_dynamics = "bfgs"
    bfgs_ndim = 2
/

&CELL
    cell_dynamics  = "bfgs"
/
K_POINTS {automatic}
 2 2 2  0 0 0

ATOMIC_SPECIES
    V   50.94150  V.pbe-spnl-kjpaw_psl.1.0.0.UPF
    O   15.99940  O.pbe-n-kjpaw_psl.1.0.0.UPF
    Li   6.94100  Li.pbe-s-kjpaw_psl.1.0.0.UPF

CELL_PARAMETERS (angstrom)
   7.143841254   0.000000000   0.000000000
   0.000000000   9.170407344   0.000000000
   0.000000000   0.000000000  11.573064855

ATOMIC_POSITIONS (angstrom)
    V    0.0000000000    1.7808366740    7.5036422270
    V    1.7859603200    2.8043670150    9.8559551220
    V    1.7859603200    2.8043670150    1.7171097770
    V    0.0000000000    1.7808366740    4.0694226720
    O    1.7859603200    2.2558671730    7.8865383250
    O    0.0000000000    2.3293365160    9.4730590230
    O    0.0000000000    2.3293365160    2.1000058750
    O    1.7859603200    2.2558671730    3.6865265740
    O    0.0000000000    0.1911167220    4.1175057090
    O    1.7859603200    4.3940869670    1.6690267410
    O    1.7859603200    4.3940869670    9.9040381580
    O    1.7859603200    2.3016531730    0.0000000000
    O    0.0000000000    2.2835505160    5.7865324500
    O    0.0000000000    0.1911167220    7.4555591900
    V    0.0000000000    6.3660403460    7.5036422270
    V    1.7859603200    7.3895706870    9.8559551220
    V    1.7859603200    7.3895706870    1.7171097770
    V    0.0000000000    6.3660403460    4.0694226720
    O    1.7859603200    6.8410708450    7.8865383250
    O    0.0000000000    6.9145401880    9.4730590230
    O    0.0000000000    6.9145401880    2.1000058750
    O    1.7859603200    6.8410708450    3.6865265740
    O    0.0000000000    4.7763203940    4.1175057090
    O    1.7859603200    8.9792906390    1.6690267410
    O    1.7859603200    8.9792906390    9.9040381580
    O    1.7859603200    6.8868568450    0.0000000000
    O    0.0000000000    6.8687541880    5.7865324500
    O    0.0000000000    4.7763203940    7.4555591900
    V    3.5719206270    1.7808366740    7.5036422270
    V    5.3578809470    2.8043670150    9.8559551220
    V    5.3578809470    2.8043670150    1.7171097770
    V    3.5719206270    1.7808366740    4.0694226720
    O    5.3578809470    2.2558671730    7.8865383250
    O    3.5719206270    2.3293365160    9.4730590230
    O    3.5719206270    2.3293365160    2.1000058750
    O    5.3578809470    2.2558671730    3.6865265740
    O    3.5719206270    0.1911167220    4.1175057090
    O    5.3578809470    4.3940869670    1.6690267410
    O    5.3578809470    4.3940869670    9.9040381580
    O    5.3578809470    2.3016531730    0.0000000000
    O    3.5719206270    2.2835505160    5.7865324500
    O    3.5719206270    0.1911167220    7.4555591900
    V    3.5719206270    6.3660403460    7.5036422270
    V    5.3578809470    7.3895706870    9.8559551220
    V    5.3578809470    7.3895706870    1.7171097770
    V    3.5719206270    6.3660403460    4.0694226720
    O    5.3578809470    6.8410708450    7.8865383250
    O    3.5719206270    6.9145401880    9.4730590230
    O    3.5719206270    6.9145401880    2.1000058750
    O    5.3578809470    6.8410708450    3.6865265740
    O    3.5719206270    4.7763203940    4.1175057090
    O    5.3578809470    8.9792906390    1.6690267410
    O    5.3578809470    8.9792906390    9.9040381580
    O    5.3578809470    6.8868568450    0.0000000000
    O    3.5719206270    6.8687541880    5.7865324500
    O    3.5719206270    4.7763203940    7.4555591900
    Li   5.8000000010    3.0000000010    5.8000000010
