&CONTROL
    calculation   = 'relax'
    forc_conv_thr =  1.00000e-02
    prefix        = 'interface'
    pseudo_dir    = '/home/mpicuntureo/pseudos'
    nstep         = 500
/
&SYSTEM
    ibrav = 0
    nat = 173
    ntyp = 3
    input_dft = "vdW-DF"
    ecutwfc = 40.0 
    ecutrho = 400.0 
    occupations = 'smearing' 
    degauss = 0.1
    smearing = 'gaussian' 
 /
 &ELECTRONS
    electron_maxstep = 500
    conv_thr = 1.0e-6 
    mixing_mode = 'local-TF' 
    mixing_beta = 0.4 
 /

&IONS
    ion_dynamics = "bfgs"
    bfgs_ndim = 2
/


ATOMIC_SPECIES
    V   50.94150 V.pbesol-spnl-kjpaw_psl.1.0.0.UPF   
    O   15.99940 O.pbesol-n-kjpaw_psl.1.0.0.UPF 
    C   12.01100 C.pbesol-n-kjpaw_psl.1.0.0.UPF
 
K_POINTS automatic
2 2 1 0 0 0

CELL_PARAMETERS (angstrom)
    15.9927511199999994    0.0000000000000000    0.0000000000000000
    -8.3521630499999997    7.4940460000000000    0.0000000000000000
     0.0000000000000000    0.0000000000000000   35.0000000000000000

ATOMIC_POSITIONS (angstrom)
V  3.7646120985806175  1.3615551762125373  7.8105919638007766   1    1    1 
V  8.8407041563290125  6.3751850164971042  7.8547552326480901   1    1    1 
V  6.3106913940917639  3.8619930992688842  7.8199611583530224   1    1    1 
V -4.3374154641132483  6.0570520904850760  8.9528908518654120   1    1    1 
V  9.1097993671474669  3.5511304486559547  8.9497993085478011   1    1    1 
V  6.5643671644216095  1.0559591663208865  8.9309424550818353   1    1    1 
V -1.7876674726999224  3.9383333421147215  8.9230209055909615   1    1    1 
V 11.6829554925871033  1.4571338825747135  8.9235365977417693   1    1    1 
V  0.7812503901085680  6.4293954656188808  8.9388565251267629   1    1    1 
V  1.1316123013533297  3.4995934533995987  8.8472888688546352   1    1    1 
V 14.5399229274304815  1.0670608771455268  7.9122197731939217   1    1    1 
V  3.7084717408691814  6.0370325612955815  8.8524359617747912   1    1    1 
V  3.7183539187948735  1.4063157376926083 12.2981942999999188   0    0    0 
V  8.8132180470135228  6.4029266999886678 12.2956581999999752   0    0    0 
V  6.2641038575269592  3.9026355964098087 12.2939239499999786   0    0    0 
V -4.3793035412361592  6.0663946483764351 13.5263929500001012   0    0    0 
V  9.0661456185653524  3.5687796686278164 13.5233598500000696   0    0    0 
V  6.5198064167519014  1.0709256288114011 13.5280081999999506   0    0    0 
V -1.6759754748662694  3.8853466074433793 13.5234648500000532   0    0    0 
V 11.7699809633639934  1.3851751088388846 13.5298159500000637   0    0    0 
V  0.8709092977364297  6.3807723515311627 13.5213917999998738   0    0    0 
V  1.1242778434020475  3.5471210513138351 12.2920209999999468   0    0    0 
V 14.5700103545028607  1.0499347309969391 12.2980490500000883   0    0    0 
V  3.6730407836466905  6.0478611981296000 12.2934902999999096   0    0    0 
O -5.6694069254679134  7.4096791254066172  8.3683097798257542   1    1    1 
O  7.7664443099739495  4.9059880440645927  8.3751679852567751   1    1    1 
O  5.1983532049091883  2.4335064689014589  8.3528390303226576   1    1    1 
O  5.0943148402644907  0.0405217363847828  8.3789049637238158   1    1    1 
O 10.1974824733139346  5.0112323984914831  8.4318968442530711   1    1    1 
O  7.6289344398201901  2.5241626884139499  8.3784007165917629   1    1    1 
O -0.1979174119153892  4.8846040052122062  8.3945020393099572   1    1    1 
O 13.1597953377267789  2.4607374501243475  8.3875895453855325   1    1    1 
O  2.3427904877601957  7.3723902341617746  8.3874086317488068   1    1    1 
O -0.3911495532801599  2.5528026250240416  8.4691225960717702   1    1    1 
O 13.0627065022099824  0.0520595232335455  8.4842735859681806   1    1    1 
O  2.1869225365140657  5.0221908204916055  8.5970093493118416   1    1    1 
O 14.4909714149406046  1.0812556624243268  6.3149533788631080   1    1    1 
O -1.8426954927244303  4.0461275542129158 10.5140731789703228   1    1    1 
O 11.5888252768743349  1.5318363333355856 10.5144749334383647   1    1    1 
O  0.7009282285302001  6.5350839676923069 10.5309273766148088   1    1    1 
O -4.2287041182496132  5.9591489481423663 10.5380415289887512   1    1    1 
O  9.1935984663030599  3.4254510238597544 10.5345732407427146   1    1    1 
O  6.6517104443298827  0.9513035960401193 10.5164122658660979   1    1    1 
O -3.0298217520135133  5.0182574037547223  8.2774064083094689   1    1    1 
O 10.3693206716946058  2.4574263274782875  8.2759498664987365   1    1    1 
O  7.8535769049704793 -0.0234522479073316  8.2867376757006941   1    1    1 
O  2.3575771722537326  2.5099123992589680  8.2235471176424060   1    1    1 
O 15.8672496061944166 -0.0162750876489055  8.3105302801137046   1    1    1 
O  4.8992271629896820  5.0014707634383591  8.2397958338834005   1    1    1 
O  3.7700671126139396  1.3652669964093231  6.2185223564764689   1    1    1 
O  8.8521998842182743  6.3705543920202734  6.2602048728436355   1    1    1 
O  6.3250840603523670  3.8853431211060192  6.2286136511569641   1    1    1 
O -5.7027118327741215  7.4144892924983150 12.8134464499999012   0    0    0 
O  7.7435590628332891  4.9147430810048789 12.8025124499999503   0    0    0 
O  5.1956812231975142  2.4178738337746504 12.8134082999999794   0    0    0 
O  5.0208658531784272  0.0728792976854081 12.9966763500000209   0    0    0 
O 10.1144623767918258  5.0691100120869281 12.9925662999999165   0    0    0 
O  7.5671170684533582  2.5701864969644359 12.9924032000000977   0    0    0 
O -0.1780995283687878  4.8822252912605890 12.9859992499999404   0    0    0 
O 13.2684806987839625  2.3832969799486787 12.9975422500000448   0    0    0 
O  2.3705884464400309  7.3800911716696147 12.9939631500000985   0    0    0 
O -0.3531956773642872  2.5366805423132415 12.8094155000001226   0    0    0 
O 13.0936637897967714  0.0383045421922806 12.8145191999998769   0    0    0 
O  2.1935167154666630  5.0353784117103935 12.7998871000000847   0    0    0 
O  1.1620144422442664  3.4895832648582323 10.6972484500000320   0    0    0 
O 14.6040304933307770  0.9978284792085086 10.7034550000000213   0    0    0 
O  3.7168332140605616  6.0018352405713244 10.6987552000001092   0    0    0 
O -1.5874444129477208  3.8174073099473063 15.1050035499999797   0    0    0 
O 11.8546806168294818  1.3117842675728415 15.1113518500000072   0    0    0 
O  0.9579350132786119  6.3014191723190702 15.1025133000000977   0    0    0 
O -4.4641589626493277  6.1355225015697394 15.1080513499999824   0    0    0 
O  8.9771983438125531  3.6449131059121185 15.1045121500001045   0    0    0 
O  6.4352132887719025  1.1445284016986244 15.1094898499998802   0    0    0 
O -3.0283646412455201  4.9752201072460194 13.1465498499999374   0    0    0 
O 10.4192158519314351  2.4772518581684402 13.1520032000000242   0    0    0 
O -0.4805438330188883  7.4738413874928948 13.1507330499998769   0    0    0 
O  2.4208823602059377  2.4782611562850825 12.8873825499998773   0    0    0 
O  7.5160184286721661  7.4727468820731495 12.8876398000000236   0    0    0 
O  4.9686127894122425  4.9752642471769954 12.8851145499999831   0    0    0 
O  3.6817572886597585  1.4562622803614240 10.7037279999999750   0    0    0 
O  8.7798432432473295  6.4572859617695375 10.7009399000000727   0    0    0 
O  6.2210737101220825  3.9477960665943446 10.6991188500001044   0    0    0 
C -1.7610026877636702  6.2984575012883113  3.5222181139771638   1    1    1 
C  2.6470287803233208  0.3870315742494486  3.4180039420731609   1    1    1 
C  1.2062421516361963  2.3753532944523061  3.4519895796924689   1    1    1 
C  0.2175998547987102  0.0965389439862478  3.3967640989442720   1    1    1 
C -0.1361241406843202  4.3693593757507267  3.4640087827721464   1    1    1 
C -1.2223820904916114  2.0726166116732556  3.4425715524647789   1    1    1 
C  5.4175598591369472  7.2750800554506050  3.4569386305680347   1    1    1 
C -2.6598814064394842  4.0284933029474335  3.4860925107772363   1    1    1 
C 12.3390454067933373  1.7623702319004622  3.5531761743376884   1    1    1 
C  3.0202283165446420  6.9915209455716640  3.7864572428619021   1    1    1 
C -4.2012905890207772  5.9586544801662154  3.4528618995621239   1    1    1 
C 10.8577169034146124  3.7061776974444154  3.5155966390795461   1    1    1 
C  9.9006508079302122  1.4523549202699375  3.6797548333922987   1    1    1 
C  0.6336444039992484  6.6602773530872144  3.8007366997201455   1    1    1 
C  9.3258795014468578  5.6298924213479173  3.4141992317312009   1    1    1 
C  8.3966251173558213  3.3788116433079565  3.4890129280408884   1    1    1 
C  7.4740640698964906  1.1094239160508905  3.5681484705962516   1    1    1 
C  6.8552786199588809  5.3152054668140973  3.3928324915598962   1    1    1 
C  5.9503650230652783  3.0518251297544130  3.4272340328859361   1    1    1 
C  5.0602816004943483  0.7562621393384105  3.4735903691449415   1    1    1 
C  4.3270421547058024  4.9818362605538917  3.4144115908876085   1    1    1 
C  3.5279819405135413  2.6988648948142058  3.4627666339673118   1    1    1 
C -4.3922329959892066  7.3591829645277844  3.4435770860559778   1    1    1 
C  2.4708399810395139  1.7696961464845726  3.4462475307451732   1    1    1 
C -6.8387901128511039  7.0291809203576783  3.3933573456081181   1    1    1 
C  1.2065706730897197  3.7895022278874961  3.4076303329995956   1    1    1 
C  0.0658701595435814  1.5154259163206805  3.4318252969819105   1    1    1 
C  6.7203266570725200  6.7272642928223849  3.3927146605229219   1    1    1 
C -1.3244473706152737  3.4906619144644369  3.4600498568746842   1    1    1 
C 13.6303049722307996  1.2038697132238023  3.4829695564372205   1    1    1 
C  4.2843378631956357  6.4107282913836041  3.5468831506923433   1    1    1 
C -2.8813422870253129  5.4269216961132516  3.4743389522167725   1    1    1 
C 12.1826824687974735  3.1712209993443494  3.5196273468133681   1    1    1 
C 11.2066710265201088  0.9152244511514467  3.6812081358128683   1    1    1 
C -5.3396697335558381  5.1014039786716765  3.4550278524683109   1    1    1 
C  9.7179304009963516  2.8512175016244341  3.5624503602385111   1    1    1 
C  8.7838765733446333  0.5847363013684500  3.6906554284183430   1    1    1 
C  8.1841463876065799  4.7761595133551973  3.4227398901032471   1    1    1 
C  7.2736893774850815  2.5149203336913302  3.4872776615771848   1    1    1 
C  6.3735389053370213  0.2194311469118682  3.5304783788588967   1    1    1 
C  5.6954276269735269  4.4493838786062474  3.3905779601159618   1    1    1 
C  4.8525519319319219  2.1724830260959873  3.4585134901063039   1    1    1 
C  3.1643997259235381  4.0666709517888329  3.4057155570363697   1    1    1 
C  1.9112866422055335  6.2252447848190977  4.0991031795853505   1    1    1 
C -0.4441064906381327  5.7635998697018556  3.5955464859683040   1    1    1 
C  3.8267335359540393  1.1757079796469410  0.0579330499999020   0    0    0 
C -0.0749312856477892  2.8046835150083922  0.0543546500000140   0    0    0 
C -1.5585278369043196  4.7597078308996332  0.0809385499999125   0    0    0 
C -2.4932485857499582  2.4788289052108103  0.0711427499998845   0    0    0 
C -3.0420718438746839  6.7147471348829102  0.0832915999998810   0    0    0 
C -3.9767658962850243  4.4339172951954149  0.0872171999998985   0    0    0 
C 11.0812572848359761  2.1531477076378200  0.0848687000000595   0    0    0 
C -5.4602731625235466  6.3889894980406288  0.0694536499998915   0    0    0 
C  9.5977500022022877  4.1081259351461199  0.0802826500001085   0    0    0 
C  8.6629892699078361  1.8273447318172600  0.0862095500000840   0    0    0 
C  1.4085412449132286  0.8498713555597280  0.0466690000000000   0    0    0 
C  8.1143823546058673  6.0630936709899901  0.0536063500000245   0    0    0 
C  7.1795896121383693  3.7822068765527925  0.0640499999999370   0    0    0 
C  6.2447862591254575  1.5015957880683770  0.0745909499999440   0    0    0 
C 14.9830718054650678  0.5239732802952611  0.0474911499998845   0    0    0 
C  5.6961952464471075  5.7372674636267416  0.0457327499998775   0    0    0 
C  4.7614792197283604  3.4563749737145844  0.0492429000000875   0    0    0 
C 12.5648685878320165  0.1980686852107579  0.0596854999999160   0    0    0 
C  3.2780220574851304  5.4114040857952954  0.0499814000000140   0    0    0 
C  2.3432217443696017  3.1305992762214676  0.0453970999999615   0    0    0 
C  1.7944566666161383  7.3663043002845674  0.0763073499999580   0    0    0 
C  0.8596762155498456  5.0854836782736816  0.0650033999999860   0    0    0 
C -0.6237296099623574  7.0405127903543931  0.0863383500000490   0    0    0 
C  1.2268435583940744  2.2596446212599970  0.0464190999999650   0    0    0 
C -0.2565972598928700  4.2145164333148832  0.0672598499999195   0    0    0 
C -1.1913251727273833  1.9336907153527152  0.0568515499999475   0    0    0 
C -1.7402720057568566  6.1694866421939292  0.0871762499999930   0    0    0 
C -2.6749851686206041  3.8886399409029537  0.0826871500001050   0    0    0 
C 12.3831662202681869  1.6078175952614495  0.0736879500000840   0    0    0 
C -4.1584127712810330  5.8437774168889369  0.0826496999999895   0    0    0 
C 10.8995007277340505  3.5629112310782682  0.0876770999999020   0    0    0 
C  9.9648692398443597  1.2819291123758692  0.0861287000001085   0    0    0 
C  2.7103754647149314  0.3046968195785119  0.0570843000000560   0    0    0 
C  9.4161030018538199  5.5179027979884516  0.0682685500000700   0    0    0 
C  8.4812874818872057  3.2372582860587822  0.0789613999999615   0    0    0 
C -8.0599170263850066  7.4730039278512619  0.0469343000000665   0    0    0 
C  6.9980983641244796  5.1920379962882528  0.0526462999999195   0    0    0 
C  6.0632328491774281  2.9113231152665846  0.0621635000000245   0    0    0 
C  5.5145793513128689  7.1471251872255026  0.0490279999999650   0    0    0 
C  4.5798827158438407  4.8662150113647886  0.0455682499999440   0    0    0 
C  3.6452059340336005  2.5854828940373089  0.0486297000000840   0    0    0 
C  3.0963425600077867  6.8211782507810534  0.0619937499999055   0    0    0 
C  2.1616355578124233  4.5402994749731107  0.0516967499999405   0    0    0 
C  0.6780146810228855  6.4953005593217163  0.0782859000000245   0    0    0 
C  7.5466683866317279  0.9563772620370636  0.0858900000000070   0    0    0 
C  5.1283708897279379  0.6306125058511227  0.0733666500001120   0    0    0 

