&CONTROL
    calculation   = "vc-relax"
    forc_conv_thr =  1.0e-05
    prefix        = "v2o5"
    pseudo_dir    = "/home/mpicuntureo/pseudos"
    nstep         = 500
/

&SYSTEM
    nat           = 14
    ntyp          = 2
    ibrav         = 8
    A             = 3.49106166089128 
    B             = 4.17615707599436 
    C             = 11.3838037937106
    vdw_corr      = "DFT-D"
    ecutwfc       = 60
    occupations   = "fixed"
/

&ELECTRONS
    conv_thr         = 1.0e-10
    electron_maxstep = 500
/

&IONS
    ion_dynamics = "bfgs"
    bfgs_ndim = 2
/

&CELL
    cell_dynamics  = "bfgs"
/

ATOMIC_SPECIES
    V   50.94150  v.nc.upf
    O   15.99940  o.nc.upf

K_POINTS (automatic)
 3 3 1  0 0 0

ATOMIC_POSITIONS (crystal)
V        0.000000000   0.376182832   0.648643351
V        0.500000004   0.623817176   0.851356661
V        0.500000004   0.623817176   0.148643347
V       -0.000000000   0.376182832   0.351356657
O        0.500000004   0.492428823   0.680344663
O        0.000000000   0.507571186   0.819655348
O       -0.000000000   0.507571186   0.180344660
O        0.500000004   0.492428823   0.319655344
O        0.000000000  -0.002978656   0.353546915
O        0.500000004   1.002978665   0.146453090
O        0.500000004   1.002978665   0.853546918
O        0.500000004   0.510945937  -0.000000000
O        0.000000000   0.489054071   0.500000004
O       -0.000000000  -0.002978656   0.646453095

