&CONTROL
    calculation   = "vc-relax"
    forc_conv_thr =  1.0e-05
    prefix        = "v2o5"
    pseudo_dir    = "/home/mpicuntureo/pseudos"
    nstep         = 500
/

&SYSTEM
    nat           = 14
    ntyp          = 2
    ibrav         = 8
    A             = 3.53632325362207 
    B             = 4.46870844080789
    C             = 11.5674007178366 
    vdw_corr      = "DFT-D"
    ecutwfc       = 40
    occupations   = "fixed"
/

&ELECTRONS
    conv_thr         = 1.0e-10
    electron_maxstep = 500
/

&IONS
    ion_dynamics = "bfgs"
    bfgs_ndim = 2
/

&CELL
    cell_dynamics  = "bfgs"
/

ATOMIC_SPECIES
    V   50.94150  v.nc.upf
    O   15.99940  o.nc.upf

K_POINTS (automatic)
 3 3 1  0 0 0

ATOMIC_POSITIONS (crystal)
V        0.000000000   0.382889526   0.648078379
V        0.500000002   0.617110478   0.851921626
V        0.500000002   0.617110478   0.148078378
V        0.000000000   0.382889526   0.351921624
O        0.500000002   0.492374684   0.681290688
O        0.000000000   0.507625320   0.818709317
O        0.000000000   0.507625320   0.181290687
O        0.500000002   0.492374684   0.318709315
O        0.000000000   0.028863921   0.354168195
O        0.500000002   0.971136083   0.145831808
O        0.500000002   0.971136083   0.854168196
O        0.500000002   0.509143620  -0.000000000
O        0.000000000   0.490856384   0.500000002
O        0.000000000   0.028863921   0.645831810
