&CONTROL
    calculation   = 'relax'
    forc_conv_thr =  1.00000e-02
    prefix        = 'interface'
    pseudo_dir    = '/home/mpicuntureo/pseudos'
    nstep         = 500
/
&SYSTEM
    ibrav = 0
    nat = 176
    ntyp = 3
    input_dft = "vdW-DF"
    ecutwfc = 40.0 
    ecutrho = 400.0 
    occupations = 'smearing' 
    degauss = 0.1
    smearing = 'gaussian' 
 /
 &ELECTRONS
    electron_maxstep = 500
    conv_thr = 1.0e-6 
    mixing_mode = 'local-TF' 
    mixing_beta = 0.4 
 /

&IONS
    ion_dynamics = "bfgs"
    bfgs_ndim = 2
/


ATOMIC_SPECIES
    V   50.94150 V.pbesol-spnl-kjpaw_psl.1.0.0.UPF   
    O   15.99940 O.pbesol-n-kjpaw_psl.1.0.0.UPF 
    C   12.01100 C.pbesol-n-kjpaw_psl.1.0.0.UPF
 
K_POINTS automatic
2 2 1 0 0 0

CELL_PARAMETERS (angstrom)
    15.9927511199999994    0.0000000000000000    0.0000000000000000
    -8.3521630499999997    7.4940460000000000    0.0000000000000000
     0.0000000000000000    0.0000000000000000   35.0000000000000000

ATOMIC_POSITIONS (crystal)
V  0.3318947353645426  0.1817694305066231  0.2241553150729751   1   1   1 
V  0.9985814628843125  0.8506036299883928  0.2247168530806917   1   1   1 
V  0.6665337518024556  0.5179026421029580  0.2245096306567433   1   1   1 
V  0.1517831798416326  0.8075695689849928  0.2568061401127336   1   1   1 
V  0.8184735031500215  0.4716990369889131  0.2569381997175716   1   1   1 
V  0.4852398078692461  0.1400604498454990  0.2563388544349834   1   1   1 
V  0.1625786808867470  0.5232451689184126  0.2566859003351641   1   1   1 
V  0.8311914787288200  0.1885756519065906  0.2561380614539820   1   1   1 
V  0.5001510316279522  0.8602362599604769  0.2566514062689901   1   1   1 
V  0.3171331175121917  0.4698398982929736  0.2528523619116286   1   1   1 
V  0.9842278971128035  0.1420462519122170  0.2248474721291883   1   1   1 
V  0.6500031693258095  0.8069228455529879  0.2253999424167577   1   1   1 
V  0.3305061100000017  0.1876577399999988  0.3513769799999977   0   0   0 
V  0.9972844199999997  0.8544018400000013  0.3513045199999993   0   0   0 
V  0.6636517100000034  0.5207648299999974  0.3512549699999994   0   0   0 
V  0.1489257699999982  0.8094952499999977  0.3864683700000029   0   0   0 
V  0.8155928700000032  0.4762153400000031  0.3863817100000020   0   0   0 
V  0.4823035100000013  0.1429035299999981  0.3865145199999986   0   0   0 
V  0.1659669800000003  0.5184578000000002  0.3863847100000015   0   0   0 
V  0.8324876399999965  0.1848367500000023  0.3865661700000018   0   0   0 
V  0.4991212300000001  0.8514455800000036  0.3863254799999964   0   0   0 
V  0.3174917999999991  0.4733252300000004  0.3512005999999985   0   0   0 
V  0.9842064899999983  0.1401025199999992  0.3513728300000025   0   0   0 
V  0.6511338400000000  0.8070221600000025  0.3512425799999974   0   0   0 
O  0.1629532948848267  0.9885782746261682  0.2396440765573650   1   1   1 
O  0.8295696972373244  0.6520378366543664  0.2397157162208715   1   1   1 
O  0.4959901654163207  0.3210754836289055  0.2389661968799005   1   1   1 
O  0.3216556658510874  0.0042394831439817  0.2403043516831642   1   1   1 
O  0.9890749151811550  0.6699789379751928  0.2418962356476508   1   1   1 
O  0.6546314527734449  0.3353538708159031  0.2416030607303396   1   1   1 
O  0.3280881624546967  0.6535542297710740  0.2431496324815405   1   1   1 
O  0.9955254279232993  0.3244860322150387  0.2410982900981512   1   1   1 
O  0.6610803188727489  0.9904049338364398  0.2410022349760680   1   1   1 
O  0.1566239219123942  0.3415750875259110  0.2414196763035715   1   1   1 
O  0.8205879509591484  0.0075629672475138  0.2382304958012784   1   1   1 
O  0.4849037527208819  0.6703593542600343  0.2421978825183747   1   1   1 
O  0.9893135958708855  0.1512966421206772  0.1793105793433320   1   1   1 
O  0.6435812804760234  0.8044382750412896  0.1799291752232496   1   1   1 
O  0.1637821576681087  0.5342492018324978  0.3021719964020894   1   1   1 
O  0.8327239958563424  0.2006977620999222  0.3015111503769641   1   1   1 
O  0.5017296383526091  0.8728681138199391  0.3020990460996756   1   1   1 
O  0.1519212508610256  0.7962804415976276  0.3021413087613923   1   1   1 
O  0.8161733449780662  0.4577469960749720  0.3022722019517980   1   1   1 
O  0.4815426944073585  0.1251276022909582  0.3016736187704776   1   1   1 
O  0.1598641015085919  0.6667786813069663  0.2381626048230182   1   1   1 
O  0.8253956547291832  0.3307709107821266  0.2381063652727987   1   1   1 
O  0.4892224406777139 -0.0047711529658140  0.2377973219887634   1   1   1 
O  0.3225796182418842  0.3331785348057062  0.2370642761788771   1   1   1 
O  0.9911654932591748 -0.0031390448731536  0.2368167384953301   1   1   1 
O  0.6584359273488000  0.6633328685592091  0.2369564819636871   1   1   1 
O  0.3318970225880837  0.1831620275654346  0.1787189400909154   1   1   1 
O  0.9990881794954024  0.8473589971485558  0.1791833270209956   1   1   1 
O  0.6692209086212590  0.5174813990495978  0.1789735084086821   1   1   1 
O  0.1601215900000028  0.9893840100000020  0.3660984699999972   0   0   0 
O  0.8266915499999996  0.6558197100000029  0.3657860699999986   0   0   0 
O  0.4933746099999965  0.3226393099999996  0.3660973799999994   0   0   0 
O  0.3190251799999970  0.0097249599999998  0.3713336100000006   0   0   0 
O  0.9856977299999983  0.6764183200000033  0.3712161799999976   0   0   0 
O  0.6522709300000002  0.3429637999999997  0.3712115200000028   0   0   0 
O  0.3290973699999995  0.6514805600000031  0.3710285499999983   0   0   0 
O  0.9957436700000031  0.3180254000000033  0.3713583500000013   0   0   0 
O  0.6625344200000001  0.9847939499999967  0.3712560900000028   0   0   0 
O  0.1546920400000005  0.3384927899999965  0.3659833000000035   0   0   0 
O  0.8213942900000006  0.0051113299999983  0.3661291199999965   0   0   0 
O  0.4880635399999989  0.6719172000000029  0.3657110600000024   0   0   0 
O  0.3158417000000000  0.4656474299999971  0.3056356700000009   0   0   0 
O  0.9827025199999966  0.1331495000000018  0.3058130000000006   0   0   0 
O  0.6506646400000022  0.8008804899999973  0.3056787200000031   0   0   0 
O  0.1667681099999996  0.5093920300000008  0.4315715299999994   0   0   0 
O  0.8326692899999983  0.1750435300000035  0.4317529100000002   0   0   0 
O  0.4990328199999965  0.8408567500000004  0.4315003800000028   0   0   0 
O  0.1484372999999977  0.8187196200000031  0.4316586099999995   0   0   0 
O  0.8153367500000002  0.4863745299999991  0.4315574900000030   0   0   0 
O  0.4821432900000033  0.1527250299999992  0.4316997099999966   0   0   0 
O  0.1573556999999965  0.6638897200000002  0.3756157099999982   0   0   0 
O  0.8241314500000030  0.3305626699999991  0.3757715200000007   0   0   0 
O  0.4907911700000014  0.9973039099999994  0.3757352299999965   0   0   0 
O  0.3240793599999989  0.3306973500000012  0.3682109299999965   0   0   0 
O  0.9907265699999996  0.9971578600000015  0.3682182800000007   0   0   0 
O  0.6573964099999969  0.6638956099999973  0.3681461299999995   0   0   0 
O  0.3316984699999992  0.1943225699999971  0.3058207999999993   0   0   0 
O  0.9989857500000028  0.8616554999999977  0.3057411400000021   0   0   0 
O  0.6641082599999990  0.5267910099999966  0.3056891100000030   0   0   0 
O  0.3890336341424142  0.5615267509857509  0.1478671173482074   1   1   1 
C  0.3250417115830293  0.8410967484726838  0.1009451820671479   1   1   1 
C  0.1942597234737695  0.0580814553868853  0.0985308257078696   1   1   1 
C  0.2350860050432709  0.3138357133125818  0.1032208666676433   1   1   1 
C  0.0201368139541899  0.0137668433658174  0.0969464649864392   1   1   1 
C  0.2800378845855119  0.5810365287418128  0.1044964827278181   1   1   1 
C  0.0636553680869254  0.2753208677992019  0.0989219458117293   1   1   1 
C  0.8462861832794095  0.9707828014563271  0.0971976368381865   1   1   1 
C  0.1077317606856116  0.5373115956969369  0.0989319409860995   1   1   1 
C  0.8908731952654882  0.2332047262028135  0.0981263712667215   1   1   1 
C  0.6735336434927525  0.9292310013715120  0.1003949688257270   1   1   1 
C  0.1513799680070847  0.7981568117526998  0.0984058538492670   1   1   1 
C  0.9337842515994437  0.4935750160168628  0.0982319416027115   1   1   1 
C  0.7166764849336783  0.1892781556565661  0.0999293175451589   1   1   1 
C  0.5001642395602568  0.8853200790217574  0.1041842581622894   1   1   1 
C  0.9770940868746057  0.7537532240111899  0.0968127427221379   1   1   1 
C  0.7599851738563523  0.4498135664812452  0.0977887032363550   1   1   1 
C  0.5427342354248965  0.1457116738277132  0.0998683009100698   1   1   1 
C  0.8031509413307806  0.7101546963391647  0.0960397142216601   1   1   1 
C  0.5857563374941106  0.4058755749301625  0.0973020196097061   1   1   1 
C  0.3687019989179869  0.1019110689998057  0.0987589494634619   1   1   1 
C  0.6295444282138969  0.6665042691264049  0.0987000520687659   1   1   1 
C  0.4129105623490552  0.3637071672044136  0.1014699594256683   1   1   1 
C  0.4596859769312536  0.6267490661567970  0.1122670551113460   1   1   1 
C  0.2380109914560982  0.9856092642700538  0.0984946767098580   1   1   1 
C  0.2805500150619887  0.2456524957996835  0.1015741474430418   1   1   1 
C  0.0640555336351973  0.9419469162946796  0.0970899660132471   1   1   1 
C  0.3205092777029369  0.5025452728387703  0.1119561587918010   1   1   1 
C  0.1069574268883969  0.2014883178554857  0.0991871889620571   1   1   1 
C  0.8897112188785232  0.8977516648401989  0.0963872695802731   1   1   1 
C  0.1509249589846515  0.4642751091349965  0.1002573130559113   1   1   1 
C  0.9342557874224469  0.1601781468798199  0.0976640238773964   1   1   1 
C  0.7168918407798037  0.8555494188396972  0.0986999421237549   1   1   1 
C  0.1948151870228118  0.7252046904845127  0.0994819767524245   1   1   1 
C  0.9773305392734147  0.4208389361977533  0.0983090856961783   1   1   1 
C  0.7604016144679584  0.1171115377555543  0.0991734551625803   1   1   1 
C  0.0206410995770405  0.6814945391962955  0.0977767253171363   1   1   1 
C  0.8035019967057667  0.3774448961809551  0.0986897329043324   1   1   1 
C  0.5863389861931502  0.0730476272353301  0.1013206649022680   1   1   1 
C  0.8468484932191217  0.6376456856642290  0.0966005002884005   1   1   1 
C  0.6292590519525469  0.3330744797196589  0.0980603026696559   1   1   1 
C  0.4119688005396411  0.0292839317035623  0.0998334687566800   1   1   1 
C  0.6727645825125591  0.5937157553927395  0.0964963296815532   1   1   1 
C  0.4556797618893898  0.2901076333816583  0.0985741446615048   1   1   1 
C  0.5004743369499336  0.5496283467157308  0.1031839846051242   1   1   1 
C  0.5454504179091552  0.8167062311338236  0.1048708593594033   1   1   1 
C  0.3676815997644870  0.7672385096763976  0.1039557459696699   1   1   1 
C  0.3212122600000029  0.1568856100000033  0.0016552299999972   0   0   0 
C  0.1907680999999997  0.3742549099999977  0.0015529900000004   0   0   0 
C  0.2342434700000027  0.6351319199999992  0.0023125299999975   0   0   0 
C  0.0168465300000022  0.3307731100000026  0.0020326499999967   0   0   0 
C  0.2777231700000016  0.8960109300000028  0.0023797599999966   0   0   0 
C  0.0603313200000031  0.5916586700000011  0.0024919199999971   0   0   0 
C  0.8429415499999990  0.2873144499999967  0.0024248200000017   0   0   0 
C  0.1038156099999981  0.8525420699999984  0.0019843899999969   0   0   0 
C  0.8864192899999992  0.5481853100000009  0.0022937900000031   0   0   0 
C  0.6690266600000001  0.2438395400000033  0.0024631300000024   0   0   0 
C  0.1472997600000028  0.1134062100000008  0.0013334000000000   0   0   0 
C  0.9299050300000005  0.8090547700000030  0.0015316100000007   0   0   0 
C  0.7125030400000014  0.5046949099999978  0.0018299999999982   0   0   0 
C  0.4951196000000024  0.2003718400000025  0.0021311699999984   0   0   0 
C  0.9733812099999994  0.0699186100000020  0.0013568899999967   0   0   0 
C  0.7559935800000019  0.7655767600000019  0.0013066499999965   0   0   0 
C  0.5385959899999975  0.4612161399999977  0.0014069400000025   0   0   0 
C  0.7994632899999985  0.0264301400000022  0.0017052999999976   0   0   0 
C  0.5820804100000032  0.7220937900000024  0.0014280400000004   0   0   0 
C  0.3646836599999972  0.4177448699999999  0.0012970599999989   0   0   0 
C  0.6255490799999990  0.9829542399999980  0.0021802099999988   0   0   0 
C  0.4081524699999974  0.6786032099999986  0.0018572399999996   0   0   0 
C  0.4516400999999988  0.9394808600000033  0.0024668100000014   0   0   0 
C  0.2341831099999965  0.3015253200000032  0.0013262599999990   0   0   0 
C  0.2776575899999969  0.5623819799999978  0.0019217099999977   0   0   0 
C  0.0602639100000033  0.2580302699999990  0.0016243299999985   0   0   0 
C  0.3211243000000010  0.8232517699999988  0.0024907499999998   0   0   0 
C  0.1037300799999983  0.5188972600000028  0.0023624900000030   0   0   0 
C  0.8863446499999981  0.2145459999999986  0.0021053700000024   0   0   0 
C  0.1472239000000002  0.7797893700000031  0.0023614199999997   0   0   0 
C  0.9298205400000015  0.4754322599999981  0.0025050599999972   0   0   0 
C  0.7124219900000028  0.1710596799999990  0.0024608200000031   0   0   0 
C  0.1907090300000007  0.0406585200000009  0.0016309800000016   0   0   0 
C  0.9733060599999988  0.7363049000000004  0.0019505300000020   0   0   0 
C  0.7559195299999999  0.4319773699999985  0.0022560399999989   0   0   0 
C  0.0168072700000010  0.9971921599999973  0.0013409800000019   0   0   0 
C  0.7994033299999970  0.6928217399999994  0.0015041799999977   0   0   0 
C  0.5820087700000016  0.3884848200000022  0.0017761000000007   0   0   0 
C  0.8428879300000034  0.9537071399999988  0.0014007999999990   0   0   0 
C  0.6254903199999973  0.6493441599999983  0.0013019499999984   0   0   0 
C  0.4081063599999979  0.3450049400000026  0.0013894200000024   0   0   0 
C  0.6689649599999967  0.9102130200000005  0.0017712499999973   0   0   0 
C  0.4515688899999972  0.6058542299999985  0.0014770499999983   0   0   0 
C  0.4950411200000033  0.8667281399999993  0.0022367400000007   0   0   0 
C  0.5385288000000017  0.1276182800000001  0.0024540000000002   0   0   0 
C  0.3646147299999996  0.0841484700000024  0.0020961900000032   0   0   0 

