&CONTROL
    calculation   = "vc-relax"
    forc_conv_thr =  1.0e-05
    prefix        = "v2o5"
    pseudo_dir    = "/home/mpicuntureo/pseudos"
    nstep         = 500
/

&SYSTEM
    nat           = 14
    ntyp          = 2
    ibrav         = 8
    A             = 3.56614502170391 
    B             = 4.65400983963725
    C             = 11.5357551205868
    ecutwfc       = 120
    occupations   = "fixed"
/

&ELECTRONS
    conv_thr         = 1.0e-10
    electron_maxstep = 500
/

&IONS
    ion_dynamics = "bfgs"
    bfgs_ndim = 2
/

&CELL
    cell_dynamics  = "bfgs"
/

ATOMIC_SPECIES
    V   50.94150  v.nc.upf
    O   15.99940  o.nc.upf

K_POINTS (automatic)
 3 3 1  0 0 0

ATOMIC_POSITIONS (crystal)
V       -0.000000000   0.389513824   0.648392105
V        0.500000002   0.610486180   0.851607901
V        0.500000002   0.610486180   0.148392104
V        0.000000000   0.389513824   0.351607898
O        0.500000002   0.491750933   0.681494347
O        0.000000000   0.508249072   0.818505658
O        0.000000000   0.508249072   0.181494346
O        0.500000002   0.491750933   0.318505656
O        0.000000000   0.050081325   0.355928428
O        0.500000002   0.949918679   0.144071575
O        0.500000002   0.949918679   0.855928429
O        0.500000002   0.501329444   0.000000000
O        0.000000000   0.498670560   0.500000002
O       -0.000000000   0.050081325   0.644071578
