&CONTROL
    calculation   = "vc-relax"
    forc_conv_thr =  1.00000e-03
    prefix        = "v2o5"
    outdir        = "outdir"
    pseudo_dir    = "/home/mpicuntureo/pseudos"
    nstep         = 500
/

&SYSTEM
    nat           = 14
    ntyp          = 2
    ibrav         = 8
    A             = 3.5812509096397 
    B             = 4.68561739334314
    C             = 11.6577945032737
    input_dft     = "vdW-DF"
    ecutwfc       = 80
    occupations   = "fixed"
/

&ELECTRONS
    conv_thr         = 1.00000e-10
    electron_maxstep = 500
/

&IONS
    ion_dynamics = "bfgs"
    bfgs_ndim = 2
/

&CELL
    cell_dynamics  = "bfgs"
/

ATOMIC_SPECIES
    V   50.94150  v.nc.upf
    O   15.99940  o.nc.upf

K_POINTS (automatic)
 3 3 1  0 0 0

ATOMIC_POSITIONS (crystal)
V        0.000000000   0.388513551   0.647730241
V        0.500000007   0.611486462   0.852269780
V        0.500000007   0.611486462   0.147730234
V        0.000000000   0.388513551   0.352269773
O        0.500000007   0.493612239   0.681221161
O        0.000000000   0.506387775   0.818778861
O        0.000000000   0.506387775   0.181221153
O        0.500000007   0.493612239   0.318778854
O        0.000000000   0.048914545   0.356796962
O        0.500000007   0.951085469   0.143203045
O        0.500000007   0.951085469   0.856796969
O        0.500000007   0.500592940   0.000000000
O        0.000000000   0.499407073   0.500000007
O        0.000000000   0.048914545   0.643203052
O       -0.000000000   0.048914545   0.643203052
