&CONTROL
    calculation   = 'relax'
    forc_conv_thr =  1.00000e-02
    prefix        = 'liv2o5_gamma'
    pseudo_dir    = '/home/mpicuntureo/pseudos'
    nstep         = 500
/
&SYSTEM
    ibrav = 0
    nat = 57
    ntyp = 3
    input_dft = "vdW-DF"
    ecutwfc = 40.0 
    ecutrho = 400.0 
    occupations = 'smearing' 
    degauss = 0.1
    smearing = 'gaussian' 
 /
 &ELECTRONS
    electron_maxstep = 500
    conv_thr = 1.0e-6 
    mixing_mode = 'plain' 
    mixing_beta = 0.4 
 /
&IONS
    ion_dynamics = "bfgs"
    bfgs_ndim = 2
/
&CELL
    cell_dynamics  = "bfgs"
/
ATOMIC_SPECIES
    V   50.94150 V.pbesol-spnl-kjpaw_psl.1.0.0.UPF   
    O   15.99940 O.pbesol-n-kjpaw_psl.1.0.0.UPF 
    Li   6.94100 Li.pbesol-sl-kjpaw_psl.1.0.0.UPF 
 
K_POINTS automatic
2 2 2 0 0 0

CELL_PARAMETERS (angstrom)
   7.210676524   0.000000000   0.000000000
   0.000000000   9.759981886   0.000000000
   0.000000000   0.000000000  10.086170892

ATOMIC_POSITIONS (angstrom)
V        0.901015018   8.522091957  -0.200003374
V        2.726671076   1.266007871  10.143911176
V        2.706919681   6.126367179   4.861680979
V        0.901293047   3.619647152   5.288618802
V        0.900983441   5.517667628   8.967815293
V        2.707357671   4.262245412   1.079039832
V        2.683216431   9.102596511   4.004469322
V        0.901193079   0.599687666   6.215195265
O        0.901257009   7.251319174   8.580389028
O        2.582721986   2.495015154   1.419555054
O        2.703432888   7.386168779   3.539375015
O        0.901393303   2.355324831   6.579012972
O        0.901172791   9.636013408   7.656693928
O        2.517096308   0.179661721   2.619072997
O        2.703218657   4.975109347   2.524613062
O        0.901038559   4.762752170   7.536349954
O        0.900958675   7.621481644   1.137087179
O        2.745366519   2.186901989   8.826614120
O        2.725943962   7.059237354   6.179605113
O        0.901260203   2.676676891   3.950069024
O        0.901316758   0.740430911   0.341867757
O        2.710677212   9.065597315   9.693078158
O        2.701809738   4.160973559   5.438057263
O        0.901538919   5.584259562   4.680608824
O        0.901397484   9.046522066   4.694762343
O        2.692860807   0.593089919   5.574059190
O        2.710835001   5.508654598   9.601876919
O        0.901318402   4.306019033   0.465523745
V        4.506362591   8.508080403  -0.178990627
V        6.286929612   1.265957612  10.143825921
V        6.307075491   6.126331260   4.861671389
V        4.506594240   3.620306979   5.207802637
V        4.506362656   5.494607570   8.966695455
V        6.306263154   4.262229869   1.079085133
V        6.330419192   9.102588755   4.004484138
V        4.506539578   0.617563243   6.162577605
O        4.506483529   7.240578541   8.603949125
O        6.430477335   2.494990118   1.419519843
O        6.310065163   7.386175972   3.539379253
O        4.506727374   2.357583596   6.520789157
O        4.506476227   9.632101634   7.595396631
O        6.496522860   0.179658866   2.619084363
O        6.310632322   4.975022049   2.524698681
O        4.506383754   4.752045132   7.534604325
O        4.506408043   7.625168233   1.168968135
O        6.268436044   2.186784132   8.826484741
O        6.288149123   7.059176419   6.179622331
O        4.506507561   2.717511890   3.869226106
O        4.506688307   0.749631654   0.385856088
O        6.302295246   9.065555928   9.692969273
O        6.311602806   4.160949584   5.438016101
O        4.506871198   5.579128448   4.644330119
O        4.506741326   9.168982950   4.543094695
O        6.320397773   0.593069503   5.574095056
O        6.302149210   5.508671677   9.601879129
O        4.506679990   4.217184646   0.467538638
Li       0.901243895   1.564264712   2.363002711
