&CONTROL
    calculation   = "scf"
    prefix        = "v2o5"
    pseudo_dir    = "/home/mpicuntureo/pseudos"
    outdir        = "outdir"
    nstep         = 500
/
&SYSTEM
    nat           = 14
    ntyp          = 2
    ibrav         = 8
    A             = 3.56807484324089 
    B             = 4.71117118784154
    C             = 11.5165944799554
    ecutwfc       = 80
    ecutrho       = 800
    occupations   = "fixed"
/
&ELECTRONS
    conv_thr         = 1.0e-12
    electron_maxstep = 500
/

ATOMIC_SPECIES
    V   50.94150  v.nc.upf
    O   15.99940  o.nc.upf

K_POINTS (automatic)
 3 3 1  0 0 0

ATOMIC_POSITIONS (crystal)
V        0.000000000   0.389641608   0.648500701
V        0.500000002   0.610358395   0.851499305
V        0.500000002   0.610358395   0.148500699
V       -0.000000000   0.389641608   0.351499303
O        0.500000002   0.491056014   0.681509508
O        0.000000000   0.508943990   0.818490498
O        0.000000000   0.508943990   0.181509506
O        0.500000002   0.491056014   0.318490496
O        0.000000000   0.054434150   0.355961390
O        0.500000002   0.945565854   0.144038612
O        0.500000002   0.945565854   0.855961392
O        0.500000002   0.501115242  -0.000000000
O        0.000000000   0.498884762   0.500000002
O       -0.000000000   0.054434150   0.644038614
