&CONTROL
    calculation   = 'relax'
    forc_conv_thr =  1.00000e-02
    prefix        = 'interface'
    pseudo_dir    = '/home/mpicuntureo/pseudos'
    nstep         = 500
/
&SYSTEM
    ibrav = 0
    nat = 3
    ntyp = 2
    input_dft = "vdW-DF"
    ecutwfc = 40.0 
    ecutrho = 400.0 
    occupations = 'smearing' 
    degauss = 0.1
    smearing = 'gaussian' 
 /
 &ELECTRONS
    electron_maxstep = 500
    conv_thr = 1.0e-6 
    mixing_mode = 'local-TF' 
    mixing_beta = 0.4 
 /

&IONS
    ion_dynamics = "bfgs"
    bfgs_ndim = 2
/


ATOMIC_SPECIES
    O   15.99940 O.pbesol-n-kjpaw_psl.1.0.0.UPF 
    C   12.01100 C.pbesol-n-kjpaw_psl.1.0.0.UPF
 
K_POINTS automatic
1 1 1 0 0 0

CELL_PARAMETERS (angstrom)
    30.0000000000000000    0.0000000000000000    0.0000000000000000
     0.0000000000000000   30.0000000000000000    0.0000000000000000
     0.0000000000000000    0.0000000000000000   30.0000000000000000


ATOMIC_POSITIONS (angstrom)
O  3.4291198049017728  4.3644527604573709  6.1169949941310451
O  1.1972144674646010  4.0607254649528697  5.8714330970952897
C  2.4020940215701603  4.2592260356126719  6.0180386964896950

