&CONTROL
    calculation   = "relax"
    forc_conv_thr =  1.0e-04
    prefix        = "v16o40"
    pseudo_dir    = "/home/mpicuntureo/pseudos"
    nstep         = 500
/

&SYSTEM
    nat           = 56
    ntyp          = 2
    ibrav         = 8
    A             = 7.0892959091321801 
    B             = 8.7589113563126997 
    C             = 11.6191427141068004 
    vdw_corr      = "DFT-D"
    ecutwfc       = 65
    ecutrho       = 650
    occupations   = "smearing"
    smearing      = "gaussian"
    degauss       =  5.0e-02 
/

&ELECTRONS
    conv_thr         = 1.0e-9
    electron_maxstep = 500
/

&IONS
    ion_dynamics = "bfgs"
    bfgs_ndim = 2
/

&CELL
    cell_dynamics  = "bfgs"
/

ATOMIC_SPECIES
    V   50.94150  V.pbe-spnl-kjpaw_psl.1.0.0.UPF
    O   15.99940  O.pbe-n-kjpaw_psl.1.0.0.UPF 

K_POINTS (automatic)
 2 2 2  0 0 0

ATOMIC_POSITIONS (angstrom)
V    0.0000000000000000    1.6761177542132251    7.5301950071718418
V    1.7723239843723411    2.7033379418988930    9.8985191232459862
V    1.7723239843723411    2.7033379418988930    1.7206236384992986
V    0.0000000000000000    1.6761177542132251    4.0889477417923867
O    1.7723239843723411    2.1592976826734325    7.9148359557770513
O    0.0000000000000000    2.2201580134386854    9.5138781746407766
O    0.0000000000000000    2.2201580134386854    2.1052645871045081
O    1.7723239843723411    2.1592976826734325    3.7043067943490917
O    0.0000000000000000    0.0836287113568819    4.1116907391860407
O    1.7723239843723411    4.2958269847552364    1.6978806527247878
O    1.7723239843723411    4.2958269847552364    9.9212621090204980
O    1.7723239843723411    2.2352347236147962    0.0000000000000000
O    0.0000000000000000    2.1442209720593759    5.8095713802916862
O    0.0000000000000000    0.0836287113568819    7.5074520330164729
V    0.0000000000000000    6.0555734323695747    7.5301950071718418
V    1.7723239843723411    7.0827936200552433    9.8985191232459862
V    1.7723239843723411    7.0827936200552433    1.7206236384992986
V    0.0000000000000000    6.0555734323695747    4.0889477417923867
O    1.7723239843723411    6.5387533608297819    7.9148359557770513
O    0.0000000000000000    6.5996136915950352    9.5138781746407766
O    0.0000000000000000    6.5996136915950352    2.1052645871045081
O    1.7723239843723411    6.5387533608297819    3.7043067943490917
O    0.0000000000000000    4.4630843895132317    4.1116907391860407
O    1.7723239843723411    8.6752826629115862    1.6978806527247878
O    1.7723239843723411    8.6752826629115862    9.9212621090204980
O    1.7723239843723411    6.6146904017711456    0.0000000000000000
O    0.0000000000000000    6.5236766502157257    5.8095713802916862
O    0.0000000000000000    4.4630843895132317    7.5074520330164729
V    3.5446479545660901    1.6761177542132251    7.5301950071718418
V    5.3169719389384316    2.7033379418988930    9.8985191232459862
V    5.3169719389384316    2.7033379418988930    1.7206236384992986
V    3.5446479545660901    1.6761177542132251    4.0889477417923867
O    5.3169719389384316    2.1592976826734325    7.9148359557770513
O    3.5446479545660901    2.2201580134386854    9.5138781746407766
O    3.5446479545660901    2.2201580134386854    2.1052645871045081
O    5.3169719389384316    2.1592976826734325    3.7043067943490917
O    3.5446479545660901    0.0836287113568819    4.1116907391860407
O    5.3169719389384316    4.2958269847552364    1.6978806527247878
O    5.3169719389384316    4.2958269847552364    9.9212621090204980
O    5.3169719389384316    2.2352347236147962    0.0000000000000000
O    3.5446479545660901    2.1442209720593759    5.8095713802916862
O    3.5446479545660901    0.0836287113568819    7.5074520330164729
V    3.5446479545660901    6.0555734323695747    7.5301950071718418
V    5.3169719389384316    7.0827936200552433    9.8985191232459862
V    5.3169719389384316    7.0827936200552433    1.7206236384992986
V    3.5446479545660901    6.0555734323695747    4.0889477417923867
O    5.3169719389384316    6.5387533608297819    7.9148359557770513
O    3.5446479545660901    6.5996136915950352    9.5138781746407766
O    3.5446479545660901    6.5996136915950352    2.1052645871045081
O    5.3169719389384316    6.5387533608297819    3.7043067943490917
O    3.5446479545660901    4.4630843895132317    4.1116907391860407
O    5.3169719389384316    8.6752826629115862    1.6978806527247878
O    5.3169719389384316    8.6752826629115862    9.9212621090204980
O    5.3169719389384316    6.6146904017711456    0.0000000000000000
O    3.5446479545660901    6.5236766502157257    5.8095713802916862
O    3.5446479545660901    4.4630843895132317    7.5074520330164729

