&CONTROL
    calculation   = "scf"
    prefix        = "v2o5"
    outdir        = "outdir"
    pseudo_dir    = "/home/mpicuntureo2/Jobs/test/pseudos"
    nstep         = 500
/
&SYSTEM
    nat           = 14
    ntyp          = 2
    ibrav         = 8
    A             = 3.54468169231072 
    B             = 4.37956927652553
    C             = 11.6189238221713
    vdw_corr      = "DFT-D"
    ecutwfc       = 65
    ecutrho       = 650
    occupations   = "smearing"
    smearing      = "gaussian"
    degauss       =  5.0e-02 
/
&ELECTRONS
    conv_thr         = 1.0e-10
    electron_maxstep = 500
/
ATOMIC_SPECIES
    V   50.94150  V.pbe-spnl-kjpaw_psl.1.0.0.UPF
    O   15.99940  O.pbe-n-kjpaw_psl.1.0.0.UPF 
K_POINTS (automatic)
 3 3 1  0 0 0
ATOMIC_POSITIONS (crystal)
V             0.0000000000        0.3827153036        0.6480868005
V             0.5000000020        0.6172847005        0.8519132046
V             0.5000000020        0.6172847005        0.1480867995
V            -0.0000000000        0.3827153036        0.3519132025
O             0.5000000020        0.4930403813        0.6811886231
O             0.0000000000        0.5069596228        0.8188113820
O             0.0000000000        0.5069596228        0.1811886221
O             0.5000000020        0.4930403813        0.3188113800
O             0.0000000000        0.0190989215        0.3538731539
O             0.5000000020        0.9809010826        0.1461268491
O             0.5000000020        0.9809010826        0.8538731550
O             0.5000000020        0.5103907791        0.0000000000
O             0.0000000000        0.4896092249        0.5000000020
O             0.0000000000        0.0190989215        0.6461268511

