&CONTROL
    calculation   = 'relax'
    forc_conv_thr =  1.00000e-02
    prefix        = 'liv2o5_gamma'
    pseudo_dir    = '/home/mpicuntureo/pseudos'
    nstep         = 500
/
&SYSTEM
    ibrav = 0
    nat = 56
    ntyp = 2
    input_dft = "vdW-DF"
    ecutwfc = 40.0 
    ecutrho = 400.0 
    occupations = 'smearing' 
    degauss = 0.1
    smearing = 'gaussian' 
 /
 &ELECTRONS
    electron_maxstep = 500
    conv_thr = 1.0e-6 
    mixing_mode = 'plain' 
    mixing_beta = 0.4 
 /
&IONS
    ion_dynamics = "bfgs"
    bfgs_ndim = 2
/
&CELL
    cell_dynamics  = "bfgs"
/
ATOMIC_SPECIES
    V   50.94150 V.pbesol-spnl-kjpaw_psl.1.0.0.UPF   
    O   15.99940 O.pbesol-n-kjpaw_psl.1.0.0.UPF 
 
K_POINTS automatic
2 2 2 0 0 0

CELL_PARAMETERS (angstrom)
   7.210676524   0.000000000   0.000000000
   0.000000000   9.759981886   0.000000000
   0.000000000   0.000000000  10.086170892

ATOMIC_POSITIONS (angstrom)
V        0.90133457       8.50792473      -0.16606773
V        2.70400371       1.25205722      10.25223868
V        2.70400371       6.13204819       4.87701775
V        0.90133457       3.62793376       5.20915320
V        0.90133457       5.50075992       8.97850500
V        2.70400371       4.25922202       1.10766596
V        2.70400371       9.13921300       3.93541952
V        0.90133457       0.62076895       6.15075144
O        0.90133457       7.24251217       8.60713497
O        2.70400371       2.51746977       1.47903599
O        2.70400371       7.39746075       3.56404949
O        0.90133457       2.36252120       6.52212147
O        0.90133457       9.63404111       7.58156843
O        2.70400371       0.12594084       2.50460253
O        2.70400371       5.00593182       2.53848295
O        0.90133457       4.75405013       7.54768800
O        0.90133457       7.60366750       1.16905957
O        2.70400371       2.15631445       8.91711139
O        2.70400371       7.03630542       6.21214505
O        0.90133457       2.72367653       3.87402591
O        0.90133457       0.71886307       0.37720968
O        2.70400371       9.04111888       9.70896128
O        2.70400371       4.16112790       5.42029515
O        0.90133457       5.59885404       4.66587580
O        0.90133457       9.15419172       4.54918893
O        2.70400371       0.60579023       5.53698203
O        2.70400371       5.48578120       9.59227441
O        0.90133457       4.27420074       0.49389655
V        4.50667283       8.50792473      -0.16606773
V        6.30934198       1.25205722      10.25223868
V        6.30934198       6.13204819       4.87701775
V        4.50667283       3.62793376       5.20915320
V        4.50667283       5.50075992       8.97850500
V        6.30934198       4.25922202       1.10766596
V        6.30934198       9.13921300       3.93541952
V        4.50667283       0.62076895       6.15075144
O        4.50667283       7.24251217       8.60713497
O        6.30934198       2.51746977       1.47903599
O        6.30934198       7.39746075       3.56404949
O        4.50667283       2.36252120       6.52212147
O        4.50667283       9.63404111       7.58156843
O        6.30934198       0.12594084       2.50460253
O        6.30934198       5.00593182       2.53848295
O        4.50667283       4.75405013       7.54768800
O        4.50667283       7.60366750       1.16905957
O        6.30934198       2.15631445       8.91711139
O        6.30934198       7.03630542       6.21214505
O        4.50667283       2.72367653       3.87402591
O        4.50667283       0.71886307       0.37720968
O        6.30934198       9.04111888       9.70896128
O        6.30934198       4.16112790       5.42029515
O        4.50667283       5.59885404       4.66587580
O        4.50667283       9.15419172       4.54918893
O        6.30934198       0.60579023       5.53698203
O        6.30934198       5.48578120       9.59227441
O        4.50667283       4.27420074       0.49389655
