&CONTROL
    calculation   = "scf"
    prefix        = "v16o39"
    outdir        = "outdir"
    pseudo_dir    = "/home/mpicuntureo2/Jobs/v2o5/pseudos"
    nstep         = 500
/
&SYSTEM
    nat           = 55
    ntyp          = 2
    ibrav         = 8
    A             = 7.0892959091321801 
    B             = 8.7589113563126997 
    C             = 11.6191427141068004 
    vdw_corr      = "DFT-D"
    ecutwfc       = 65
    ecutrho       = 650
    occupations   = "smearing"
    smearing      = "gaussian"
    degauss       =  5.0e-02 
/
&ELECTRONS
    conv_thr         = 1.0e-10
    electron_maxstep = 500
/
ATOMIC_SPECIES
    V   50.94150  V.pbe-spnl-kjpaw_psl.1.0.0.UPF
    O   15.99940  O.pbe-n-kjpaw_psl.1.0.0.UPF 
K_POINTS (automatic)
 2 2 2  0 0 0
ATOMIC_POSITIONS (angstrom)
V             0.0000000000        1.6290421726        7.5405791957
V             1.7587953318        2.7277200289        9.8854425882
V             1.7587953318        2.7277200289        1.7337001735
V             0.0000000000        1.6290421726        4.0785635540
O             1.7591088664        2.1579997300        7.9144775794
O             0.0000000000        2.1592365821        9.5389349614
O             0.0000000000        2.1592365821        2.0802078007
O             1.7591088664        2.1579997300        3.7046651707
O             0.0000000000        0.0314108009        4.0507333997
O             1.6910686255        4.3271008823        1.7709070100
O             1.6910686255        4.3271008823        9.8482357516
O             1.7894099981        2.3080139068        0.0000000000
O             0.0000000000        2.0631772701        5.8095713796
O             0.0000000000        0.0314108009        7.5684093710
V             0.0000000000        6.1630867659        7.4950536249
V             1.7495043058        7.0627750581        9.9175091642
V             1.7495043058        7.0627750581        1.7016335981
V             0.0000000000        6.1630867659        4.1240891235
O             1.8767836700        6.5975458424        7.8143441436
O             0.0000000000        6.6628846891        9.4237466453
O             0.0000000000        6.6628846891        2.1953961161
O             1.8767836700        6.5975458424        3.8047986061
O             0.0000000000        4.5755518945        4.1884721009
O             1.8985406579        8.6443616206        1.6722607314
O             1.8985406579        8.6443616206        9.9468820291
O             1.5796264379        6.6120742849        0.0000000000
O             0.0000000000        6.6937669976        5.8095713796
O             0.0000000000        4.5755518945        7.4306706714
V             3.5446479546        1.6839685812        7.5242901766
V             5.3305005926        2.7277200289        9.8854425882
V             5.3305005926        2.7277200289        1.7337001735
V             3.5446479546        1.6839685812        4.0948525722
O             5.3301870579        2.1579997300        7.9144775794
O             3.5446479546        2.2709973731        9.5023684408
O             3.5446479546        2.2709973731        2.1167743206
O             5.3301870579        2.1579997300        3.7046651707
O             3.5446479546        0.0882543703        4.1524341809
O             5.3982272984        4.3271008823        1.7709070100
O             5.3982272984        4.3271008823        9.8482357516
O             5.2998859242        2.3080139068        0.0000000000
O             3.5446479546        2.1647461400        5.8095713796
O             3.5446479546        0.0882543703        7.4667085907
V             3.5446479546        5.9313492171        7.9492861808
V             5.3397916178        7.0627750581        9.9175091642
V             5.3397916178        7.0627750581        1.7016335981
V             3.5446479546        5.9313492171        3.6698565682
O             5.2125122529        6.5975458424        7.8143441436
O             3.5446479546        6.3440673089        9.7560000090
O             3.5446479546        6.3440673089        1.8631427532
O             5.2125122529        6.5975458424        3.8047986061
O             3.5446479546        4.4071314305        4.1336443563
O             5.1907552663        8.6443616206        1.6722607314
O             5.1907552663        8.6443616206        9.9468820291
O             5.5096694855        6.6120742849        0.0000000000
O             3.5446479546        4.4071314305        7.4854984164

