&CONTROL
    calculation   = "scf"
    prefix        = "v16o39"
    outdir        = "outdir"
    pseudo_dir    = "/home/mpicuntureo2/Jobs/v2o5/pseudos"
    nstep         = 500
/
&SYSTEM
    nat           = 55
    ntyp          = 2
    ibrav         = 8
    A             = 7.0892959091321801 
    B             = 8.7589113563126997 
    C             = 11.6191427141068004 
    vdw_corr      = "DFT-D"
    ecutwfc       = 65
    ecutrho       = 650
    occupations   = "smearing"
    smearing      = "gaussian"
    degauss       =  5.0e-02 
/
&ELECTRONS
    conv_thr         = 1.0e-9
    electron_maxstep = 500
    diagonalization  = "cg"
/
ATOMIC_SPECIES
    V   50.94150  V.pbe-spnl-kjpaw_psl.1.0.0.UPF
    O   15.99940  O.pbe-n-kjpaw_psl.1.0.0.UPF 
K_POINTS (automatic)
 2 2 2  0 0 0
ATOMIC_POSITIONS (angstrom)
V             0.0000000000        1.6617128371        7.5403289478
V             1.7676616687        2.6887681081        9.8947893071
V             1.7802001392        2.7062158213        1.7235028196
V             0.0000000000        1.6945349522        4.1053224576
O             1.7718854318        2.1739175753        7.8949625205
O             0.0000000000        2.1772175687        9.5281015207
O             0.0000000000        2.2644542521        2.1413211950
O             1.8139127464        2.1647038805        3.7353263685
O             0.0000000000        0.0984538722        4.1109436956
O             1.8529045284        4.3016184929        1.7369391260
O             1.7630646414        4.2814493432        9.9034686571
O             1.7814377839        2.2459790714        0.0138040193
O             0.0000000000        2.1450339230        5.8140120646
O             0.0000000000        0.0680346499        7.5019013596
V             0.0000000000        6.0465363254        7.5161498350
V             1.7710735264        7.0727817345        9.8606502542
V             1.7491639324        7.0396568583        1.6769337345
V             0.0000000000        6.0371312482        4.0935388289
O             1.7862298787        6.5378697909        7.8727366523
O             0.0000000000        6.5877442012        9.4894844162
O             0.0000000000        6.5065730676        2.1242867936
O             1.8132215234        6.5182739672        3.7366959136
O             0.0000000000        4.4426049203        4.1300948766
O             1.6899741726        8.6354691857        1.6976299553
O             1.7945064456        8.6647342663        9.8957302731
O             1.7694518150        6.5939922367       -0.0279559349
O             0.0000000000        6.5329434031        5.7929113291
O             0.0000000000        4.4550785036        7.4883153971
V             3.5446479542        1.6984994608        7.5456036357
V             5.3216342536        2.6887681081        9.8947893071
V             5.3090957840        2.7062158213        1.7235028196
V             3.5446479542        1.6650813038        4.1091113956
O             5.3174104910        2.1739175753        7.8949625205
O             3.5446479542        2.1752100698        9.5093342183
O             3.5446479542        2.1606969892        2.1411515864
O             5.2753831767        2.1647038805        3.7353263685
O             3.5446479542       -0.0687275992        4.2323434373
O             5.2363913945        4.3016184929        1.7369391260
O             5.3262312823        4.2814493432        9.9034686571
O             5.3078581378        2.2459790714        0.0138040193
O             3.5446479542        2.1903787488        5.7507301414
O             3.5446479542        0.1088287888        7.4304719757
V             3.5446479542        5.9804285507        7.5770661208
V             5.3182223961        7.0727817345        9.8606502542
V             5.3401319903        7.0396568583        1.6769337345
V             3.5446479542        6.9252218741        4.1450983061
O             5.3030660452        6.5378697909        7.8727366523
O             3.5446479542        6.5400850707        9.4981963106
O             3.5446479542        6.6858259505        2.1240329752
O             5.2760744000        6.5182739672        3.7366959136
O             5.3993217512        8.6354691857        1.6976299553
O             5.2947894789        8.6647342663        9.8957302731
O             5.3198441080        6.5939922367       -0.0279559349
O             3.5446479542        6.3685754195        5.7603524244
O             3.5446479542        4.3874150858        7.5553884440

