&CONTROL
    calculation   = "scf"
    prefix        = "v16o39"
    outdir        = "outdir"
    pseudo_dir    = "/home/mpicuntureo2/Jobs/test/pseudos"
    nstep         = 500
/
&SYSTEM
    nat           = 55
    ntyp          = 2
    ibrav         = 8
    A             = 7.0892959091321801 
    B             = 8.7589113563126997 
    C             = 11.6191427141068004 
    vdw_corr      = "DFT-D"
    ecutwfc       = 65
    ecutrho       = 650
    occupations   = "smearing"
    smearing      = "gaussian"
    degauss       =  1.0e-01
/
&ELECTRONS
    conv_thr         = 1.0e-10
    electron_maxstep = 500
    diagonalization  = "cg"
/
ATOMIC_SPECIES
    V   50.94150  V.pbe-spnl-kjpaw_psl.1.0.0.UPF
    O   15.99940  O.pbe-n-kjpaw_psl.1.0.0.UPF 
K_POINTS (automatic)
 2 2 2  0 0 0
ATOMIC_POSITIONS (angstrom)
V            -0.0019985571        1.6601909696        7.5299440349
V             1.7723239844        2.7423227192        9.8667894531
V             1.7723239844        2.7259613229        1.7099999377
V             0.0049215880        1.6269731863        4.0652813069
O             1.7723239844        2.1766292463        7.8942050628
O            -0.0063390714        2.2366631726        9.5098398927
O            -0.0145891307        2.2373051132        2.0922130958
O             1.7723239844        2.1139265628        3.6734967882
O             0.0259254321        0.0254617798        4.0513924889
O             1.7723239844        4.3234359434        1.7366274058
O             1.7723239844        4.3359775951        9.8432754506
O             1.7723239844        2.3120924113       -0.0159723446
O            -0.0005920811        2.0708030270        5.7899178368
O            -0.0009028589        0.0647147417        7.5562760301
V            -0.0055201406        6.1183592228        7.5096690519
V             1.7723239844        7.0954915894        9.8132120432
V             1.7723239844        7.0742585314        1.5539158612
V            -0.0331541541        6.0286209039        4.1496730685
O             1.7723239844        6.5807788632        7.9227162029
O            -0.0189453568        6.5848220047        9.4995611805
O             0.1577933104        6.5878541525        2.2953347748
O             0.1987544787        4.4532301573        4.1912721410
O             1.7723239844        8.6717941192        1.5233143545
O             1.7723239844        8.6820159722        9.9301637148
O             1.7723239844        6.5283277169       -0.0760967102
O             0.2392432476        6.6238173172        5.7690786600
O            -0.0351654506        4.5298292205        7.4282410378
V             3.5466465122        1.6601909696        7.5299440349
V             5.3169719391        2.7593102347        9.8810274393
V             5.3169719391        2.7899707168        1.7441183027
V             3.5397263666        1.6269731863        4.0652813069
O             5.3169719391        2.1750165622        7.8995963337
O             3.5509870263        2.2366631726        9.5098398927
O             3.5592370849        2.2373051132        2.0922130958
O             5.3169719391        2.1466242882        3.6999998000
O             3.5187225235        0.0254617798        4.0513924889
O             5.3169719391        4.4024092304        1.8150079104
O             5.3169719391        4.3553541055        9.8422837182
O             5.3169719391        2.3694307244        0.0167258137
O             3.5452400332        2.0708030270        5.7899178368
O             3.5455508142        0.0647147417        7.5562760301
V             3.5501680957        6.1183592228        7.5096690519
V             5.3169719391        7.0531760245        9.9263288142
V             5.3169719391        6.9147160559        1.7828891054
V             3.5778021084        6.0286209039        4.1496730685
O             5.3169719391        6.6321440519        7.8058147048
O             3.5635933097        6.5848220047        9.4995611805
O             3.3868546453        6.5878541525        2.2953347748
O             5.3169719391        6.3639488678        3.8484843020
O             3.3458934750        4.4532301573        4.1912721410
O             5.3169719391        8.4998102887        1.7902862210
O             5.3169719391        8.6402996618       10.0215372130
O             5.3169719391        6.5482517745        0.0682688673
O             3.3054047058        6.6238173172        5.7690786600
O             3.5798134057        4.5298292205        7.4282410378

