&CONTROL
    calculation   = 'scf'
    forc_conv_thr =  1.00000e-02
    prefix        = 'interface'
    pseudo_dir    = '/home/mpicuntureo/pseudos'
    nstep         = 500
/
&SYSTEM
    ibrav = 0
    nat = 177
    ntyp = 4
    input_dft = "vdW-DF"
    ecutwfc = 40.0 
    ecutrho = 400.0 
    occupations = 'smearing' 
    degauss = 0.1
    smearing = 'gaussian' 
 /
 &ELECTRONS
    electron_maxstep = 500
    conv_thr = 1.0e-6 
    mixing_mode = 'local-TF' 
    mixing_beta = 0.4 
 /

&IONS
    ion_dynamics = "bfgs"
    bfgs_ndim = 2
/


ATOMIC_SPECIES
    V   50.94150 V.pbesol-spnl-kjpaw_psl.1.0.0.UPF   
    O   15.99940 O.pbesol-n-kjpaw_psl.1.0.0.UPF 
    C   12.01100 C.pbesol-n-kjpaw_psl.1.0.0.UPF
    Li   6.94100 Li.pbesol-sl-kjpaw_psl.1.0.0.UPF 
 
K_POINTS automatic
2 2 1 0 0 0

CELL_PARAMETERS (angstrom)
    15.9927511199999994    0.0000000000000000    0.0000000000000000
    -8.3521630499999997    7.4940460000000000    0.0000000000000000
     0.0000000000000000    0.0000000000000000   35.0000000000000000

ATOMIC_POSITIONS (angstrom)
V        8.073133598   6.085003091   7.763103678
V        5.537334196   3.613411492   7.767874343
V        2.980984423   1.077682872   7.727437851
V        8.339214962   3.276413664   9.043491594
V        5.797842026   0.775968313   9.005248258
V       -5.089012055   5.778074758   9.015787024
V       10.882712530   1.165660860   9.030888761
V        0.001906883   6.165510767   8.990561785
V       -2.543189826   3.677240026   9.045481251
V       13.713167484   0.861652141   7.788050378
V        2.828455678   5.872929354   7.729349469
V        0.258205255   3.326850309   7.758464458
V        7.995460142   6.172247073  12.253294272
V        5.417881682   3.669490805  12.410977072
V        2.913310045   1.208852214  12.393887753
V        8.265867387   3.374237582  13.610263784
V        5.720681933   0.854491185  13.708691880
V       -5.196837390   5.862597377  13.608055075
V       10.990408559   1.111397134  13.602169805
V        0.073120384   6.118552928  13.699306673
V       -2.474214536   3.598568360  13.610104335
V       13.794713252   0.801299244  12.255514134
V        2.881155533   5.764884530  12.390070137
V        0.370273251   3.304669064  12.404241262
O        6.983128695   4.642070014   8.392862555
O        4.427396208   2.146850243   8.386075394
O       -6.437594564   7.132634289   8.327946903
O        9.401462646   4.765446374   8.531024719
O        6.848398713   2.272275093   8.473873651
O       -4.033108896   7.259731004   8.450934276
O       12.383888863   2.180800599   8.557182776
O        1.485416076   7.180613740   8.441797287
O       -1.058104269   4.677451025   8.460215954
O        3.891137561   7.301794684   8.364302117
O        1.359601033   4.807035133   8.335186970
O       -1.188326412   2.308127618   8.408548743
O       13.562607096   0.986870383   6.179715551
O        2.769160390   5.950006445   6.115115115
O        0.098855218   3.327232067   6.147927714
O       10.752081199   1.240376441  10.635440790
O       -0.067138249   6.285021182  10.595164198
O       -2.612748031   3.858258192  10.645355454
O        8.412900263   3.122917646  10.646095579
O        5.864167670   0.644071706  10.607800093
O       -4.973784641   5.704346479  10.621393320
O        9.622160666   2.236761317   8.305282232
O       -1.270167580   7.227841280   8.272189161
O       -3.829616238   4.704909304   8.292900330
O        6.722829894   7.223082051   8.021979929
O        4.109847516   4.668915248   8.173017260
O        1.686973844   2.272047022   8.149679939
O        8.191840510   5.960541707   6.151610548
O        5.664754412   3.587804442   6.155599267
O        3.101492954   1.016394304   6.115428895
O        6.939612669   4.680774035  12.767765375
O        4.356321135   2.218379213  13.021534112
O       -6.497219662   7.178781613  12.742915792
O        9.329981034   4.831031225  12.972673849
O        6.756643509   2.336196201  13.082053704
O       -4.111953880   7.346124703  13.057417857
O       12.453408083   2.145654842  12.964013869
O        1.554049253   7.121226909  13.051176070
O       -0.969083894   4.640045428  13.076453034
O        3.942032836   7.288625754  12.746062932
O        1.437079000   4.754756765  13.010054702
O       -1.146514009   2.290044246  12.777390856
O       13.876838683   0.680909906  10.646290613
O        2.907359939   5.446641789  10.787571427
O        0.574322023   3.262846274  10.795121018
O       11.184102853   1.013407993  15.193724773
O        0.183433579   6.079765035  15.299842390
O       -2.337261068   3.452250114  15.202745968
O        8.129541006   3.518511902  15.203369550
O        5.624220644   0.890023563  15.310691654
O       -5.386736719   5.962416175  15.200347027
O        9.615209626   2.229483233  13.329613097
O       -1.280136316   7.234705886  13.309278124
O       -3.822953651   4.745835959  13.331970095
O        6.716472293   7.230789506  12.963301688
O        4.191806713   4.778575743  13.130193117
O        1.600668139   2.195765041  13.122434480
O        7.925117780   6.292546297  10.643618018
O        5.195916256   3.693408002  10.799197304
O        2.895628425   1.523957919  10.790570387
C       10.844778385   3.579945352   3.573563461
C        6.942185001   5.207665071   3.440152430
C        5.459815055   7.163361031   3.423607848
C        4.525293631   4.882530791   3.415797755
C       12.329212937   1.624374454   3.489498561
C        3.041100863   6.838520526   3.436752369
C        2.105395326   4.556993544   3.412867038
C        9.910955816   1.298608296   3.557966044
C        0.624097702   6.511573538   3.510765492
C       -0.311906369   4.231346607   3.461272292
C        8.425030394   3.255459507   3.538602326
C        7.491182816   0.974149440   3.567756742
C       -1.794427768   6.186020711   3.569937209
C       -2.728189446   3.904534698   3.547222935
C        6.008018277   2.927041279   3.454394896
C        5.072362660   0.647580415   3.504602753
C       -4.214380075   5.861866223   3.546393031
C        3.589417238   2.601237684   3.417918619
C        2.653849309   0.319554690   3.426177077
C        9.360219288   5.534302474   3.483190447
C        1.171953195   2.275615984   3.409629945
C       -8.115429155   7.488776532   3.431265245
C       -1.246782937   1.950067063   3.442185795
C        8.244592698   4.663734730   3.483299739
C        6.761100576   6.619739200   3.432316091
C        5.826962803   4.339067906   3.423620632
C       13.630728488   1.080857724   3.436643757
C        4.343497220   6.294261518   3.420087376
C        3.408851753   4.013308445   3.414620753
C       11.213190260   0.752579031   3.496985031
C        1.925273104   5.968040693   3.438444154
C        0.991470049   3.687909888   3.414990938
C        9.727955558   2.707951826   3.574338003
C        8.794221350   0.426470270   3.562323269
C       -0.492122809   5.639311444   3.522669362
C        7.308193708   2.383440785   3.526164852
C        6.373776613   0.102068024   3.562600580
C       -2.911697245   5.314456757   3.572835077
C        4.892015797   2.057694962   3.452656975
C       -4.395703946   7.270302113   3.486993435
C       -5.330782532   4.989650852   3.543692637
C        2.473766962   1.732353577   3.405072662
C       -6.811760917   6.945072716   3.437250417
C        0.056219609   1.406616490   3.427504207
C       -1.426975782   3.360309277   3.481697266
C       12.147491649   3.032281328   3.550451740
C        8.122492540   5.941360180  -0.013936709
C       12.572231158   0.076393906  -0.018650677
C       11.088959025   2.031254807   0.013738197
C        1.802206872   7.244579491  -0.000068543
C        9.605931732   3.986297856   0.016410505
C        8.671365081   1.705446982   0.021339790
C       -0.615428061   6.918643624   0.017560350
C        7.187901814   3.660490541  -0.000711907
C        6.252952071   1.379599142   0.010388435
C       -3.034103703   6.592871140   0.018406414
C        5.703785621   5.615520007  -0.026814729
C        4.768894925   3.334679492  -0.021584770
C        3.834188545   1.053889239  -0.011469263
C       -5.452395493   6.267186756   0.003311254
C        3.285134638   5.289688696  -0.028754199
C        2.350645236   3.008970982  -0.032033567
C        1.416387421   0.728219388  -0.026320951
C        0.867659170   4.963873411  -0.014409098
C       -0.066862190   2.683158100  -0.023846221
C       14.990981507   0.402331967  -0.027477019
C       -1.550270603   4.637923264   0.008220386
C       -2.485444264   2.357160447  -0.004846301
C       -3.968947905   4.312082677   0.020392149
C        5.522784752   7.025056715  -0.027033433
C       12.391594398   1.485919493  -0.002712838
C        3.104788441   6.699312453  -0.017541835
C       10.907769725   3.441065990   0.021364517
C        9.972921251   1.160181965   0.015453328
C        0.685966118   6.373440688   0.002610861
C        8.488943136   3.115451588   0.015776615
C        7.554160304   0.834496931   0.020961854
C       -1.732360450   6.047554531   0.019251470
C        7.005867262   5.070203246  -0.014934741
C        6.071261695   2.789529797  -0.003789857
C        5.136573164   0.508805490   0.007750304
C        4.588349423   4.744309485  -0.028702605
C        3.653762885   2.463604678  -0.024360674
C        2.718573363   0.182849199  -0.012910563
C        2.169879778   4.418586475  -0.028186986
C        1.234872781   2.137673538  -0.030800360
C       -8.052171708   7.350898407  -0.024963341
C       -0.248902684   4.092602780  -0.010413830
C       -1.183498944   1.811765447  -0.020507733
C       -2.666718651   3.766623417   0.011024851
C       -4.150291166   5.721963727   0.017672617
C        9.423973040   5.396227690   0.002992610
Li       3.024641631   3.465346274   9.718537379
